192
Illustrative finite 4 × 4 × 3 cell crop of independent undoped bulk ZnO COD9004178. Chosen block geometry, not a Norberg nanocrystal or film. No Mn atoms, inferred vacancies, surface ligands or passivation are added. Zn–O links use a stated 1.7–2.2 Å visualization window, not a measured bond refinement.
Zn -3.24940000 -3.75207455 -7.49893599
Zn -1.62470000 -4.69011429 -4.89703599
O -3.24940000 -3.75207455 -5.51056401
O -1.62470000 -4.69011429 -2.90866401
Zn -3.24940000 -3.75207455 -2.29513599
Zn -1.62470000 -4.69011429 0.30676401
O -3.24940000 -3.75207455 -0.30676401
O -1.62470000 -4.69011429 2.29513599
Zn -3.24940000 -3.75207455 2.90866401
Zn -1.62470000 -4.69011429 5.51056401
O -3.24940000 -3.75207455 4.89703599
O -1.62470000 -4.69011429 7.49893599
Zn -4.87410000 -0.93801160 -7.49893599
Zn -3.24940000 -1.87605134 -4.89703599
O -4.87410000 -0.93801160 -5.51056401
O -3.24940000 -1.87605134 -2.90866401
Zn -4.87410000 -0.93801160 -2.29513599
Zn -3.24940000 -1.87605134 0.30676401
O -4.87410000 -0.93801160 -0.30676401
O -3.24940000 -1.87605134 2.29513599
Zn -4.87410000 -0.93801160 2.90866401
Zn -3.24940000 -1.87605134 5.51056401
O -4.87410000 -0.93801160 4.89703599
O -3.24940000 -1.87605134 7.49893599
Zn -6.49880000 1.87605134 -7.49893599
Zn -4.87410000 0.93801160 -4.89703599
O -6.49880000 1.87605134 -5.51056401
O -4.87410000 0.93801160 -2.90866401
Zn -6.49880000 1.87605134 -2.29513599
Zn -4.87410000 0.93801160 0.30676401
O -6.49880000 1.87605134 -0.30676401
O -4.87410000 0.93801160 2.29513599
Zn -6.49880000 1.87605134 2.90866401
Zn -4.87410000 0.93801160 5.51056401
O -6.49880000 1.87605134 4.89703599
O -4.87410000 0.93801160 7.49893599
Zn -8.12350000 4.69011429 -7.49893599
Zn -6.49880000 3.75207455 -4.89703599
O -8.12350000 4.69011429 -5.51056401
O -6.49880000 3.75207455 -2.90866401
Zn -8.12350000 4.69011429 -2.29513599
Zn -6.49880000 3.75207455 0.30676401
O -8.12350000 4.69011429 -0.30676401
O -6.49880000 3.75207455 2.29513599
Zn -8.12350000 4.69011429 2.90866401
Zn -6.49880000 3.75207455 5.51056401
O -8.12350000 4.69011429 4.89703599
O -6.49880000 3.75207455 7.49893599
Zn -0.00000000 -3.75207455 -7.49893599
Zn 1.62470000 -4.69011429 -4.89703599
O -0.00000000 -3.75207455 -5.51056401
O 1.62470000 -4.69011429 -2.90866401
Zn -0.00000000 -3.75207455 -2.29513599
Zn 1.62470000 -4.69011429 0.30676401
O -0.00000000 -3.75207455 -0.30676401
O 1.62470000 -4.69011429 2.29513599
Zn -0.00000000 -3.75207455 2.90866401
Zn 1.62470000 -4.69011429 5.51056401
O -0.00000000 -3.75207455 4.89703599
O 1.62470000 -4.69011429 7.49893599
Zn -1.62470000 -0.93801160 -7.49893599
Zn -0.00000000 -1.87605134 -4.89703599
O -1.62470000 -0.93801160 -5.51056401
O -0.00000000 -1.87605134 -2.90866401
Zn -1.62470000 -0.93801160 -2.29513599
Zn -0.00000000 -1.87605134 0.30676401
O -1.62470000 -0.93801160 -0.30676401
O -0.00000000 -1.87605134 2.29513599
Zn -1.62470000 -0.93801160 2.90866401
Zn -0.00000000 -1.87605134 5.51056401
O -1.62470000 -0.93801160 4.89703599
O -0.00000000 -1.87605134 7.49893599
Zn -3.24940000 1.87605134 -7.49893599
Zn -1.62470000 0.93801160 -4.89703599
O -3.24940000 1.87605134 -5.51056401
O -1.62470000 0.93801160 -2.90866401
Zn -3.24940000 1.87605134 -2.29513599
Zn -1.62470000 0.93801160 0.30676401
O -3.24940000 1.87605134 -0.30676401
O -1.62470000 0.93801160 2.29513599
Zn -3.24940000 1.87605134 2.90866401
Zn -1.62470000 0.93801160 5.51056401
O -3.24940000 1.87605134 4.89703599
O -1.62470000 0.93801160 7.49893599
Zn -4.87410000 4.69011429 -7.49893599
Zn -3.24940000 3.75207455 -4.89703599
O -4.87410000 4.69011429 -5.51056401
O -3.24940000 3.75207455 -2.90866401
Zn -4.87410000 4.69011429 -2.29513599
Zn -3.24940000 3.75207455 0.30676401
O -4.87410000 4.69011429 -0.30676401
O -3.24940000 3.75207455 2.29513599
Zn -4.87410000 4.69011429 2.90866401
Zn -3.24940000 3.75207455 5.51056401
O -4.87410000 4.69011429 4.89703599
O -3.24940000 3.75207455 7.49893599
Zn 3.24940000 -3.75207455 -7.49893599
Zn 4.87410000 -4.69011429 -4.89703599
O 3.24940000 -3.75207455 -5.51056401
O 4.87410000 -4.69011429 -2.90866401
Zn 3.24940000 -3.75207455 -2.29513599
Zn 4.87410000 -4.69011429 0.30676401
O 3.24940000 -3.75207455 -0.30676401
O 4.87410000 -4.69011429 2.29513599
Zn 3.24940000 -3.75207455 2.90866401
Zn 4.87410000 -4.69011429 5.51056401
O 3.24940000 -3.75207455 4.89703599
O 4.87410000 -4.69011429 7.49893599
Zn 1.62470000 -0.93801160 -7.49893599
Zn 3.24940000 -1.87605134 -4.89703599
O 1.62470000 -0.93801160 -5.51056401
O 3.24940000 -1.87605134 -2.90866401
Zn 1.62470000 -0.93801160 -2.29513599
Zn 3.24940000 -1.87605134 0.30676401
O 1.62470000 -0.93801160 -0.30676401
O 3.24940000 -1.87605134 2.29513599
Zn 1.62470000 -0.93801160 2.90866401
Zn 3.24940000 -1.87605134 5.51056401
O 1.62470000 -0.93801160 4.89703599
O 3.24940000 -1.87605134 7.49893599
Zn 0.00000000 1.87605134 -7.49893599
Zn 1.62470000 0.93801160 -4.89703599
O 0.00000000 1.87605134 -5.51056401
O 1.62470000 0.93801160 -2.90866401
Zn 0.00000000 1.87605134 -2.29513599
Zn 1.62470000 0.93801160 0.30676401
O 0.00000000 1.87605134 -0.30676401
O 1.62470000 0.93801160 2.29513599
Zn 0.00000000 1.87605134 2.90866401
Zn 1.62470000 0.93801160 5.51056401
O 0.00000000 1.87605134 4.89703599
O 1.62470000 0.93801160 7.49893599
Zn -1.62470000 4.69011429 -7.49893599
Zn 0.00000000 3.75207455 -4.89703599
O -1.62470000 4.69011429 -5.51056401
O 0.00000000 3.75207455 -2.90866401
Zn -1.62470000 4.69011429 -2.29513599
Zn 0.00000000 3.75207455 0.30676401
O -1.62470000 4.69011429 -0.30676401
O 0.00000000 3.75207455 2.29513599
Zn -1.62470000 4.69011429 2.90866401
Zn 0.00000000 3.75207455 5.51056401
O -1.62470000 4.69011429 4.89703599
O 0.00000000 3.75207455 7.49893599
Zn 6.49880000 -3.75207455 -7.49893599
Zn 8.12350000 -4.69011429 -4.89703599
O 6.49880000 -3.75207455 -5.51056401
O 8.12350000 -4.69011429 -2.90866401
Zn 6.49880000 -3.75207455 -2.29513599
Zn 8.12350000 -4.69011429 0.30676401
O 6.49880000 -3.75207455 -0.30676401
O 8.12350000 -4.69011429 2.29513599
Zn 6.49880000 -3.75207455 2.90866401
Zn 8.12350000 -4.69011429 5.51056401
O 6.49880000 -3.75207455 4.89703599
O 8.12350000 -4.69011429 7.49893599
Zn 4.87410000 -0.93801160 -7.49893599
Zn 6.49880000 -1.87605134 -4.89703599
O 4.87410000 -0.93801160 -5.51056401
O 6.49880000 -1.87605134 -2.90866401
Zn 4.87410000 -0.93801160 -2.29513599
Zn 6.49880000 -1.87605134 0.30676401
O 4.87410000 -0.93801160 -0.30676401
O 6.49880000 -1.87605134 2.29513599
Zn 4.87410000 -0.93801160 2.90866401
Zn 6.49880000 -1.87605134 5.51056401
O 4.87410000 -0.93801160 4.89703599
O 6.49880000 -1.87605134 7.49893599
Zn 3.24940000 1.87605134 -7.49893599
Zn 4.87410000 0.93801160 -4.89703599
O 3.24940000 1.87605134 -5.51056401
O 4.87410000 0.93801160 -2.90866401
Zn 3.24940000 1.87605134 -2.29513599
Zn 4.87410000 0.93801160 0.30676401
O 3.24940000 1.87605134 -0.30676401
O 4.87410000 0.93801160 2.29513599
Zn 3.24940000 1.87605134 2.90866401
Zn 4.87410000 0.93801160 5.51056401
O 3.24940000 1.87605134 4.89703599
O 4.87410000 0.93801160 7.49893599
Zn 1.62470000 4.69011429 -7.49893599
Zn 3.24940000 3.75207455 -4.89703599
O 1.62470000 4.69011429 -5.51056401
O 3.24940000 3.75207455 -2.90866401
Zn 1.62470000 4.69011429 -2.29513599
Zn 3.24940000 3.75207455 0.30676401
O 1.62470000 4.69011429 -0.30676401
O 3.24940000 3.75207455 2.29513599
Zn 1.62470000 4.69011429 2.90866401
Zn 3.24940000 3.75207455 5.51056401
O 1.62470000 4.69011429 4.89703599
O 3.24940000 3.75207455 7.49893599
