4096
Illustrative 8 × 8 × 8 cell PbSe block: 4.88 nm cell envelope; 4.575 nm atom-center span. Chosen visualization dimensions, not a fitted or measured particle. No surface ligands or assembly geometry reconstructed.
Pb -22.875 -22.875 -22.875
Se -22.875 -22.875 -19.825
Pb -22.875 -22.875 -16.775
Se -22.875 -22.875 -13.725
Pb -22.875 -22.875 -10.675
Se -22.875 -22.875 -7.625
Pb -22.875 -22.875 -4.575
Se -22.875 -22.875 -1.525
Pb -22.875 -22.875 1.525
Se -22.875 -22.875 4.575
Pb -22.875 -22.875 7.625
Se -22.875 -22.875 10.675
Pb -22.875 -22.875 13.725
Se -22.875 -22.875 16.775
Pb -22.875 -22.875 19.825
Se -22.875 -22.875 22.875
Se -22.875 -19.825 -22.875
Pb -22.875 -19.825 -19.825
Se -22.875 -19.825 -16.775
Pb -22.875 -19.825 -13.725
Se -22.875 -19.825 -10.675
Pb -22.875 -19.825 -7.625
Se -22.875 -19.825 -4.575
Pb -22.875 -19.825 -1.525
Se -22.875 -19.825 1.525
Pb -22.875 -19.825 4.575
Se -22.875 -19.825 7.625
Pb -22.875 -19.825 10.675
Se -22.875 -19.825 13.725
Pb -22.875 -19.825 16.775
Se -22.875 -19.825 19.825
Pb -22.875 -19.825 22.875
Pb -22.875 -16.775 -22.875
Se -22.875 -16.775 -19.825
Pb -22.875 -16.775 -16.775
Se -22.875 -16.775 -13.725
Pb -22.875 -16.775 -10.675
Se -22.875 -16.775 -7.625
Pb -22.875 -16.775 -4.575
Se -22.875 -16.775 -1.525
Pb -22.875 -16.775 1.525
Se -22.875 -16.775 4.575
Pb -22.875 -16.775 7.625
Se -22.875 -16.775 10.675
Pb -22.875 -16.775 13.725
Se -22.875 -16.775 16.775
Pb -22.875 -16.775 19.825
Se -22.875 -16.775 22.875
Se -22.875 -13.725 -22.875
Pb -22.875 -13.725 -19.825
Se -22.875 -13.725 -16.775
Pb -22.875 -13.725 -13.725
Se -22.875 -13.725 -10.675
Pb -22.875 -13.725 -7.625
Se -22.875 -13.725 -4.575
Pb -22.875 -13.725 -1.525
Se -22.875 -13.725 1.525
Pb -22.875 -13.725 4.575
Se -22.875 -13.725 7.625
Pb -22.875 -13.725 10.675
Se -22.875 -13.725 13.725
Pb -22.875 -13.725 16.775
Se -22.875 -13.725 19.825
Pb -22.875 -13.725 22.875
Pb -22.875 -10.675 -22.875
Se -22.875 -10.675 -19.825
Pb -22.875 -10.675 -16.775
Se -22.875 -10.675 -13.725
Pb -22.875 -10.675 -10.675
Se -22.875 -10.675 -7.625
Pb -22.875 -10.675 -4.575
Se -22.875 -10.675 -1.525
Pb -22.875 -10.675 1.525
Se -22.875 -10.675 4.575
Pb -22.875 -10.675 7.625
Se -22.875 -10.675 10.675
Pb -22.875 -10.675 13.725
Se -22.875 -10.675 16.775
Pb -22.875 -10.675 19.825
Se -22.875 -10.675 22.875
Se -22.875 -7.625 -22.875
Pb -22.875 -7.625 -19.825
Se -22.875 -7.625 -16.775
Pb -22.875 -7.625 -13.725
Se -22.875 -7.625 -10.675
Pb -22.875 -7.625 -7.625
Se -22.875 -7.625 -4.575
Pb -22.875 -7.625 -1.525
Se -22.875 -7.625 1.525
Pb -22.875 -7.625 4.575
Se -22.875 -7.625 7.625
Pb -22.875 -7.625 10.675
Se -22.875 -7.625 13.725
Pb -22.875 -7.625 16.775
Se -22.875 -7.625 19.825
Pb -22.875 -7.625 22.875
Pb -22.875 -4.575 -22.875
Se -22.875 -4.575 -19.825
Pb -22.875 -4.575 -16.775
Se -22.875 -4.575 -13.725
Pb -22.875 -4.575 -10.675
Se -22.875 -4.575 -7.625
Pb -22.875 -4.575 -4.575
Se -22.875 -4.575 -1.525
Pb -22.875 -4.575 1.525
Se -22.875 -4.575 4.575
Pb -22.875 -4.575 7.625
Se -22.875 -4.575 10.675
Pb -22.875 -4.575 13.725
Se -22.875 -4.575 16.775
Pb -22.875 -4.575 19.825
Se -22.875 -4.575 22.875
Se -22.875 -1.525 -22.875
Pb -22.875 -1.525 -19.825
Se -22.875 -1.525 -16.775
Pb -22.875 -1.525 -13.725
Se -22.875 -1.525 -10.675
Pb -22.875 -1.525 -7.625
Se -22.875 -1.525 -4.575
Pb -22.875 -1.525 -1.525
Se -22.875 -1.525 1.525
Pb -22.875 -1.525 4.575
Se -22.875 -1.525 7.625
Pb -22.875 -1.525 10.675
Se -22.875 -1.525 13.725
Pb -22.875 -1.525 16.775
Se -22.875 -1.525 19.825
Pb -22.875 -1.525 22.875
Pb -22.875 1.525 -22.875
Se -22.875 1.525 -19.825
Pb -22.875 1.525 -16.775
Se -22.875 1.525 -13.725
Pb -22.875 1.525 -10.675
Se -22.875 1.525 -7.625
Pb -22.875 1.525 -4.575
Se -22.875 1.525 -1.525
Pb -22.875 1.525 1.525
Se -22.875 1.525 4.575
Pb -22.875 1.525 7.625
Se -22.875 1.525 10.675
Pb -22.875 1.525 13.725
Se -22.875 1.525 16.775
Pb -22.875 1.525 19.825
Se -22.875 1.525 22.875
Se -22.875 4.575 -22.875
Pb -22.875 4.575 -19.825
Se -22.875 4.575 -16.775
Pb -22.875 4.575 -13.725
Se -22.875 4.575 -10.675
Pb -22.875 4.575 -7.625
Se -22.875 4.575 -4.575
Pb -22.875 4.575 -1.525
Se -22.875 4.575 1.525
Pb -22.875 4.575 4.575
Se -22.875 4.575 7.625
Pb -22.875 4.575 10.675
Se -22.875 4.575 13.725
Pb -22.875 4.575 16.775
Se -22.875 4.575 19.825
Pb -22.875 4.575 22.875
Pb -22.875 7.625 -22.875
Se -22.875 7.625 -19.825
Pb -22.875 7.625 -16.775
Se -22.875 7.625 -13.725
Pb -22.875 7.625 -10.675
Se -22.875 7.625 -7.625
Pb -22.875 7.625 -4.575
Se -22.875 7.625 -1.525
Pb -22.875 7.625 1.525
Se -22.875 7.625 4.575
Pb -22.875 7.625 7.625
Se -22.875 7.625 10.675
Pb -22.875 7.625 13.725
Se -22.875 7.625 16.775
Pb -22.875 7.625 19.825
Se -22.875 7.625 22.875
Se -22.875 10.675 -22.875
Pb -22.875 10.675 -19.825
Se -22.875 10.675 -16.775
Pb -22.875 10.675 -13.725
Se -22.875 10.675 -10.675
Pb -22.875 10.675 -7.625
Se -22.875 10.675 -4.575
Pb -22.875 10.675 -1.525
Se -22.875 10.675 1.525
Pb -22.875 10.675 4.575
Se -22.875 10.675 7.625
Pb -22.875 10.675 10.675
Se -22.875 10.675 13.725
Pb -22.875 10.675 16.775
Se -22.875 10.675 19.825
Pb -22.875 10.675 22.875
Pb -22.875 13.725 -22.875
Se -22.875 13.725 -19.825
Pb -22.875 13.725 -16.775
Se -22.875 13.725 -13.725
Pb -22.875 13.725 -10.675
Se -22.875 13.725 -7.625
Pb -22.875 13.725 -4.575
Se -22.875 13.725 -1.525
Pb -22.875 13.725 1.525
Se -22.875 13.725 4.575
Pb -22.875 13.725 7.625
Se -22.875 13.725 10.675
Pb -22.875 13.725 13.725
Se -22.875 13.725 16.775
Pb -22.875 13.725 19.825
Se -22.875 13.725 22.875
Se -22.875 16.775 -22.875
Pb -22.875 16.775 -19.825
Se -22.875 16.775 -16.775
Pb -22.875 16.775 -13.725
Se -22.875 16.775 -10.675
Pb -22.875 16.775 -7.625
Se -22.875 16.775 -4.575
Pb -22.875 16.775 -1.525
Se -22.875 16.775 1.525
Pb -22.875 16.775 4.575
Se -22.875 16.775 7.625
Pb -22.875 16.775 10.675
Se -22.875 16.775 13.725
Pb -22.875 16.775 16.775
Se -22.875 16.775 19.825
Pb -22.875 16.775 22.875
Pb -22.875 19.825 -22.875
Se -22.875 19.825 -19.825
Pb -22.875 19.825 -16.775
Se -22.875 19.825 -13.725
Pb -22.875 19.825 -10.675
Se -22.875 19.825 -7.625
Pb -22.875 19.825 -4.575
Se -22.875 19.825 -1.525
Pb -22.875 19.825 1.525
Se -22.875 19.825 4.575
Pb -22.875 19.825 7.625
Se -22.875 19.825 10.675
Pb -22.875 19.825 13.725
Se -22.875 19.825 16.775
Pb -22.875 19.825 19.825
Se -22.875 19.825 22.875
Se -22.875 22.875 -22.875
Pb -22.875 22.875 -19.825
Se -22.875 22.875 -16.775
Pb -22.875 22.875 -13.725
Se -22.875 22.875 -10.675
Pb -22.875 22.875 -7.625
Se -22.875 22.875 -4.575
Pb -22.875 22.875 -1.525
Se -22.875 22.875 1.525
Pb -22.875 22.875 4.575
Se -22.875 22.875 7.625
Pb -22.875 22.875 10.675
Se -22.875 22.875 13.725
Pb -22.875 22.875 16.775
Se -22.875 22.875 19.825
Pb -22.875 22.875 22.875
Se -19.825 -22.875 -22.875
Pb -19.825 -22.875 -19.825
Se -19.825 -22.875 -16.775
Pb -19.825 -22.875 -13.725
Se -19.825 -22.875 -10.675
Pb -19.825 -22.875 -7.625
Se -19.825 -22.875 -4.575
Pb -19.825 -22.875 -1.525
Se -19.825 -22.875 1.525
Pb -19.825 -22.875 4.575
Se -19.825 -22.875 7.625
Pb -19.825 -22.875 10.675
Se -19.825 -22.875 13.725
Pb -19.825 -22.875 16.775
Se -19.825 -22.875 19.825
Pb -19.825 -22.875 22.875
Pb -19.825 -19.825 -22.875
Se -19.825 -19.825 -19.825
Pb -19.825 -19.825 -16.775
Se -19.825 -19.825 -13.725
Pb -19.825 -19.825 -10.675
Se -19.825 -19.825 -7.625
Pb -19.825 -19.825 -4.575
Se -19.825 -19.825 -1.525
Pb -19.825 -19.825 1.525
Se -19.825 -19.825 4.575
Pb -19.825 -19.825 7.625
Se -19.825 -19.825 10.675
Pb -19.825 -19.825 13.725
Se -19.825 -19.825 16.775
Pb -19.825 -19.825 19.825
Se -19.825 -19.825 22.875
Se -19.825 -16.775 -22.875
Pb -19.825 -16.775 -19.825
Se -19.825 -16.775 -16.775
Pb -19.825 -16.775 -13.725
Se -19.825 -16.775 -10.675
Pb -19.825 -16.775 -7.625
Se -19.825 -16.775 -4.575
Pb -19.825 -16.775 -1.525
Se -19.825 -16.775 1.525
Pb -19.825 -16.775 4.575
Se -19.825 -16.775 7.625
Pb -19.825 -16.775 10.675
Se -19.825 -16.775 13.725
Pb -19.825 -16.775 16.775
Se -19.825 -16.775 19.825
Pb -19.825 -16.775 22.875
Pb -19.825 -13.725 -22.875
Se -19.825 -13.725 -19.825
Pb -19.825 -13.725 -16.775
Se -19.825 -13.725 -13.725
Pb -19.825 -13.725 -10.675
Se -19.825 -13.725 -7.625
Pb -19.825 -13.725 -4.575
Se -19.825 -13.725 -1.525
Pb -19.825 -13.725 1.525
Se -19.825 -13.725 4.575
Pb -19.825 -13.725 7.625
Se -19.825 -13.725 10.675
Pb -19.825 -13.725 13.725
Se -19.825 -13.725 16.775
Pb -19.825 -13.725 19.825
Se -19.825 -13.725 22.875
Se -19.825 -10.675 -22.875
Pb -19.825 -10.675 -19.825
Se -19.825 -10.675 -16.775
Pb -19.825 -10.675 -13.725
Se -19.825 -10.675 -10.675
Pb -19.825 -10.675 -7.625
Se -19.825 -10.675 -4.575
Pb -19.825 -10.675 -1.525
Se -19.825 -10.675 1.525
Pb -19.825 -10.675 4.575
Se -19.825 -10.675 7.625
Pb -19.825 -10.675 10.675
Se -19.825 -10.675 13.725
Pb -19.825 -10.675 16.775
Se -19.825 -10.675 19.825
Pb -19.825 -10.675 22.875
Pb -19.825 -7.625 -22.875
Se -19.825 -7.625 -19.825
Pb -19.825 -7.625 -16.775
Se -19.825 -7.625 -13.725
Pb -19.825 -7.625 -10.675
Se -19.825 -7.625 -7.625
Pb -19.825 -7.625 -4.575
Se -19.825 -7.625 -1.525
Pb -19.825 -7.625 1.525
Se -19.825 -7.625 4.575
Pb -19.825 -7.625 7.625
Se -19.825 -7.625 10.675
Pb -19.825 -7.625 13.725
Se -19.825 -7.625 16.775
Pb -19.825 -7.625 19.825
Se -19.825 -7.625 22.875
Se -19.825 -4.575 -22.875
Pb -19.825 -4.575 -19.825
Se -19.825 -4.575 -16.775
Pb -19.825 -4.575 -13.725
Se -19.825 -4.575 -10.675
Pb -19.825 -4.575 -7.625
Se -19.825 -4.575 -4.575
Pb -19.825 -4.575 -1.525
Se -19.825 -4.575 1.525
Pb -19.825 -4.575 4.575
Se -19.825 -4.575 7.625
Pb -19.825 -4.575 10.675
Se -19.825 -4.575 13.725
Pb -19.825 -4.575 16.775
Se -19.825 -4.575 19.825
Pb -19.825 -4.575 22.875
Pb -19.825 -1.525 -22.875
Se -19.825 -1.525 -19.825
Pb -19.825 -1.525 -16.775
Se -19.825 -1.525 -13.725
Pb -19.825 -1.525 -10.675
Se -19.825 -1.525 -7.625
Pb -19.825 -1.525 -4.575
Se -19.825 -1.525 -1.525
Pb -19.825 -1.525 1.525
Se -19.825 -1.525 4.575
Pb -19.825 -1.525 7.625
Se -19.825 -1.525 10.675
Pb -19.825 -1.525 13.725
Se -19.825 -1.525 16.775
Pb -19.825 -1.525 19.825
Se -19.825 -1.525 22.875
Se -19.825 1.525 -22.875
Pb -19.825 1.525 -19.825
Se -19.825 1.525 -16.775
Pb -19.825 1.525 -13.725
Se -19.825 1.525 -10.675
Pb -19.825 1.525 -7.625
Se -19.825 1.525 -4.575
Pb -19.825 1.525 -1.525
Se -19.825 1.525 1.525
Pb -19.825 1.525 4.575
Se -19.825 1.525 7.625
Pb -19.825 1.525 10.675
Se -19.825 1.525 13.725
Pb -19.825 1.525 16.775
Se -19.825 1.525 19.825
Pb -19.825 1.525 22.875
Pb -19.825 4.575 -22.875
Se -19.825 4.575 -19.825
Pb -19.825 4.575 -16.775
Se -19.825 4.575 -13.725
Pb -19.825 4.575 -10.675
Se -19.825 4.575 -7.625
Pb -19.825 4.575 -4.575
Se -19.825 4.575 -1.525
Pb -19.825 4.575 1.525
Se -19.825 4.575 4.575
Pb -19.825 4.575 7.625
Se -19.825 4.575 10.675
Pb -19.825 4.575 13.725
Se -19.825 4.575 16.775
Pb -19.825 4.575 19.825
Se -19.825 4.575 22.875
Se -19.825 7.625 -22.875
Pb -19.825 7.625 -19.825
Se -19.825 7.625 -16.775
Pb -19.825 7.625 -13.725
Se -19.825 7.625 -10.675
Pb -19.825 7.625 -7.625
Se -19.825 7.625 -4.575
Pb -19.825 7.625 -1.525
Se -19.825 7.625 1.525
Pb -19.825 7.625 4.575
Se -19.825 7.625 7.625
Pb -19.825 7.625 10.675
Se -19.825 7.625 13.725
Pb -19.825 7.625 16.775
Se -19.825 7.625 19.825
Pb -19.825 7.625 22.875
Pb -19.825 10.675 -22.875
Se -19.825 10.675 -19.825
Pb -19.825 10.675 -16.775
Se -19.825 10.675 -13.725
Pb -19.825 10.675 -10.675
Se -19.825 10.675 -7.625
Pb -19.825 10.675 -4.575
Se -19.825 10.675 -1.525
Pb -19.825 10.675 1.525
Se -19.825 10.675 4.575
Pb -19.825 10.675 7.625
Se -19.825 10.675 10.675
Pb -19.825 10.675 13.725
Se -19.825 10.675 16.775
Pb -19.825 10.675 19.825
Se -19.825 10.675 22.875
Se -19.825 13.725 -22.875
Pb -19.825 13.725 -19.825
Se -19.825 13.725 -16.775
Pb -19.825 13.725 -13.725
Se -19.825 13.725 -10.675
Pb -19.825 13.725 -7.625
Se -19.825 13.725 -4.575
Pb -19.825 13.725 -1.525
Se -19.825 13.725 1.525
Pb -19.825 13.725 4.575
Se -19.825 13.725 7.625
Pb -19.825 13.725 10.675
Se -19.825 13.725 13.725
Pb -19.825 13.725 16.775
Se -19.825 13.725 19.825
Pb -19.825 13.725 22.875
Pb -19.825 16.775 -22.875
Se -19.825 16.775 -19.825
Pb -19.825 16.775 -16.775
Se -19.825 16.775 -13.725
Pb -19.825 16.775 -10.675
Se -19.825 16.775 -7.625
Pb -19.825 16.775 -4.575
Se -19.825 16.775 -1.525
Pb -19.825 16.775 1.525
Se -19.825 16.775 4.575
Pb -19.825 16.775 7.625
Se -19.825 16.775 10.675
Pb -19.825 16.775 13.725
Se -19.825 16.775 16.775
Pb -19.825 16.775 19.825
Se -19.825 16.775 22.875
Se -19.825 19.825 -22.875
Pb -19.825 19.825 -19.825
Se -19.825 19.825 -16.775
Pb -19.825 19.825 -13.725
Se -19.825 19.825 -10.675
Pb -19.825 19.825 -7.625
Se -19.825 19.825 -4.575
Pb -19.825 19.825 -1.525
Se -19.825 19.825 1.525
Pb -19.825 19.825 4.575
Se -19.825 19.825 7.625
Pb -19.825 19.825 10.675
Se -19.825 19.825 13.725
Pb -19.825 19.825 16.775
Se -19.825 19.825 19.825
Pb -19.825 19.825 22.875
Pb -19.825 22.875 -22.875
Se -19.825 22.875 -19.825
Pb -19.825 22.875 -16.775
Se -19.825 22.875 -13.725
Pb -19.825 22.875 -10.675
Se -19.825 22.875 -7.625
Pb -19.825 22.875 -4.575
Se -19.825 22.875 -1.525
Pb -19.825 22.875 1.525
Se -19.825 22.875 4.575
Pb -19.825 22.875 7.625
Se -19.825 22.875 10.675
Pb -19.825 22.875 13.725
Se -19.825 22.875 16.775
Pb -19.825 22.875 19.825
Se -19.825 22.875 22.875
Pb -16.775 -22.875 -22.875
Se -16.775 -22.875 -19.825
Pb -16.775 -22.875 -16.775
Se -16.775 -22.875 -13.725
Pb -16.775 -22.875 -10.675
Se -16.775 -22.875 -7.625
Pb -16.775 -22.875 -4.575
Se -16.775 -22.875 -1.525
Pb -16.775 -22.875 1.525
Se -16.775 -22.875 4.575
Pb -16.775 -22.875 7.625
Se -16.775 -22.875 10.675
Pb -16.775 -22.875 13.725
Se -16.775 -22.875 16.775
Pb -16.775 -22.875 19.825
Se -16.775 -22.875 22.875
Se -16.775 -19.825 -22.875
Pb -16.775 -19.825 -19.825
Se -16.775 -19.825 -16.775
Pb -16.775 -19.825 -13.725
Se -16.775 -19.825 -10.675
Pb -16.775 -19.825 -7.625
Se -16.775 -19.825 -4.575
Pb -16.775 -19.825 -1.525
Se -16.775 -19.825 1.525
Pb -16.775 -19.825 4.575
Se -16.775 -19.825 7.625
Pb -16.775 -19.825 10.675
Se -16.775 -19.825 13.725
Pb -16.775 -19.825 16.775
Se -16.775 -19.825 19.825
Pb -16.775 -19.825 22.875
Pb -16.775 -16.775 -22.875
Se -16.775 -16.775 -19.825
Pb -16.775 -16.775 -16.775
Se -16.775 -16.775 -13.725
Pb -16.775 -16.775 -10.675
Se -16.775 -16.775 -7.625
Pb -16.775 -16.775 -4.575
Se -16.775 -16.775 -1.525
Pb -16.775 -16.775 1.525
Se -16.775 -16.775 4.575
Pb -16.775 -16.775 7.625
Se -16.775 -16.775 10.675
Pb -16.775 -16.775 13.725
Se -16.775 -16.775 16.775
Pb -16.775 -16.775 19.825
Se -16.775 -16.775 22.875
Se -16.775 -13.725 -22.875
Pb -16.775 -13.725 -19.825
Se -16.775 -13.725 -16.775
Pb -16.775 -13.725 -13.725
Se -16.775 -13.725 -10.675
Pb -16.775 -13.725 -7.625
Se -16.775 -13.725 -4.575
Pb -16.775 -13.725 -1.525
Se -16.775 -13.725 1.525
Pb -16.775 -13.725 4.575
Se -16.775 -13.725 7.625
Pb -16.775 -13.725 10.675
Se -16.775 -13.725 13.725
Pb -16.775 -13.725 16.775
Se -16.775 -13.725 19.825
Pb -16.775 -13.725 22.875
Pb -16.775 -10.675 -22.875
Se -16.775 -10.675 -19.825
Pb -16.775 -10.675 -16.775
Se -16.775 -10.675 -13.725
Pb -16.775 -10.675 -10.675
Se -16.775 -10.675 -7.625
Pb -16.775 -10.675 -4.575
Se -16.775 -10.675 -1.525
Pb -16.775 -10.675 1.525
Se -16.775 -10.675 4.575
Pb -16.775 -10.675 7.625
Se -16.775 -10.675 10.675
Pb -16.775 -10.675 13.725
Se -16.775 -10.675 16.775
Pb -16.775 -10.675 19.825
Se -16.775 -10.675 22.875
Se -16.775 -7.625 -22.875
Pb -16.775 -7.625 -19.825
Se -16.775 -7.625 -16.775
Pb -16.775 -7.625 -13.725
Se -16.775 -7.625 -10.675
Pb -16.775 -7.625 -7.625
Se -16.775 -7.625 -4.575
Pb -16.775 -7.625 -1.525
Se -16.775 -7.625 1.525
Pb -16.775 -7.625 4.575
Se -16.775 -7.625 7.625
Pb -16.775 -7.625 10.675
Se -16.775 -7.625 13.725
Pb -16.775 -7.625 16.775
Se -16.775 -7.625 19.825
Pb -16.775 -7.625 22.875
Pb -16.775 -4.575 -22.875
Se -16.775 -4.575 -19.825
Pb -16.775 -4.575 -16.775
Se -16.775 -4.575 -13.725
Pb -16.775 -4.575 -10.675
Se -16.775 -4.575 -7.625
Pb -16.775 -4.575 -4.575
Se -16.775 -4.575 -1.525
Pb -16.775 -4.575 1.525
Se -16.775 -4.575 4.575
Pb -16.775 -4.575 7.625
Se -16.775 -4.575 10.675
Pb -16.775 -4.575 13.725
Se -16.775 -4.575 16.775
Pb -16.775 -4.575 19.825
Se -16.775 -4.575 22.875
Se -16.775 -1.525 -22.875
Pb -16.775 -1.525 -19.825
Se -16.775 -1.525 -16.775
Pb -16.775 -1.525 -13.725
Se -16.775 -1.525 -10.675
Pb -16.775 -1.525 -7.625
Se -16.775 -1.525 -4.575
Pb -16.775 -1.525 -1.525
Se -16.775 -1.525 1.525
Pb -16.775 -1.525 4.575
Se -16.775 -1.525 7.625
Pb -16.775 -1.525 10.675
Se -16.775 -1.525 13.725
Pb -16.775 -1.525 16.775
Se -16.775 -1.525 19.825
Pb -16.775 -1.525 22.875
Pb -16.775 1.525 -22.875
Se -16.775 1.525 -19.825
Pb -16.775 1.525 -16.775
Se -16.775 1.525 -13.725
Pb -16.775 1.525 -10.675
Se -16.775 1.525 -7.625
Pb -16.775 1.525 -4.575
Se -16.775 1.525 -1.525
Pb -16.775 1.525 1.525
Se -16.775 1.525 4.575
Pb -16.775 1.525 7.625
Se -16.775 1.525 10.675
Pb -16.775 1.525 13.725
Se -16.775 1.525 16.775
Pb -16.775 1.525 19.825
Se -16.775 1.525 22.875
Se -16.775 4.575 -22.875
Pb -16.775 4.575 -19.825
Se -16.775 4.575 -16.775
Pb -16.775 4.575 -13.725
Se -16.775 4.575 -10.675
Pb -16.775 4.575 -7.625
Se -16.775 4.575 -4.575
Pb -16.775 4.575 -1.525
Se -16.775 4.575 1.525
Pb -16.775 4.575 4.575
Se -16.775 4.575 7.625
Pb -16.775 4.575 10.675
Se -16.775 4.575 13.725
Pb -16.775 4.575 16.775
Se -16.775 4.575 19.825
Pb -16.775 4.575 22.875
Pb -16.775 7.625 -22.875
Se -16.775 7.625 -19.825
Pb -16.775 7.625 -16.775
Se -16.775 7.625 -13.725
Pb -16.775 7.625 -10.675
Se -16.775 7.625 -7.625
Pb -16.775 7.625 -4.575
Se -16.775 7.625 -1.525
Pb -16.775 7.625 1.525
Se -16.775 7.625 4.575
Pb -16.775 7.625 7.625
Se -16.775 7.625 10.675
Pb -16.775 7.625 13.725
Se -16.775 7.625 16.775
Pb -16.775 7.625 19.825
Se -16.775 7.625 22.875
Se -16.775 10.675 -22.875
Pb -16.775 10.675 -19.825
Se -16.775 10.675 -16.775
Pb -16.775 10.675 -13.725
Se -16.775 10.675 -10.675
Pb -16.775 10.675 -7.625
Se -16.775 10.675 -4.575
Pb -16.775 10.675 -1.525
Se -16.775 10.675 1.525
Pb -16.775 10.675 4.575
Se -16.775 10.675 7.625
Pb -16.775 10.675 10.675
Se -16.775 10.675 13.725
Pb -16.775 10.675 16.775
Se -16.775 10.675 19.825
Pb -16.775 10.675 22.875
Pb -16.775 13.725 -22.875
Se -16.775 13.725 -19.825
Pb -16.775 13.725 -16.775
Se -16.775 13.725 -13.725
Pb -16.775 13.725 -10.675
Se -16.775 13.725 -7.625
Pb -16.775 13.725 -4.575
Se -16.775 13.725 -1.525
Pb -16.775 13.725 1.525
Se -16.775 13.725 4.575
Pb -16.775 13.725 7.625
Se -16.775 13.725 10.675
Pb -16.775 13.725 13.725
Se -16.775 13.725 16.775
Pb -16.775 13.725 19.825
Se -16.775 13.725 22.875
Se -16.775 16.775 -22.875
Pb -16.775 16.775 -19.825
Se -16.775 16.775 -16.775
Pb -16.775 16.775 -13.725
Se -16.775 16.775 -10.675
Pb -16.775 16.775 -7.625
Se -16.775 16.775 -4.575
Pb -16.775 16.775 -1.525
Se -16.775 16.775 1.525
Pb -16.775 16.775 4.575
Se -16.775 16.775 7.625
Pb -16.775 16.775 10.675
Se -16.775 16.775 13.725
Pb -16.775 16.775 16.775
Se -16.775 16.775 19.825
Pb -16.775 16.775 22.875
Pb -16.775 19.825 -22.875
Se -16.775 19.825 -19.825
Pb -16.775 19.825 -16.775
Se -16.775 19.825 -13.725
Pb -16.775 19.825 -10.675
Se -16.775 19.825 -7.625
Pb -16.775 19.825 -4.575
Se -16.775 19.825 -1.525
Pb -16.775 19.825 1.525
Se -16.775 19.825 4.575
Pb -16.775 19.825 7.625
Se -16.775 19.825 10.675
Pb -16.775 19.825 13.725
Se -16.775 19.825 16.775
Pb -16.775 19.825 19.825
Se -16.775 19.825 22.875
Se -16.775 22.875 -22.875
Pb -16.775 22.875 -19.825
Se -16.775 22.875 -16.775
Pb -16.775 22.875 -13.725
Se -16.775 22.875 -10.675
Pb -16.775 22.875 -7.625
Se -16.775 22.875 -4.575
Pb -16.775 22.875 -1.525
Se -16.775 22.875 1.525
Pb -16.775 22.875 4.575
Se -16.775 22.875 7.625
Pb -16.775 22.875 10.675
Se -16.775 22.875 13.725
Pb -16.775 22.875 16.775
Se -16.775 22.875 19.825
Pb -16.775 22.875 22.875
Se -13.725 -22.875 -22.875
Pb -13.725 -22.875 -19.825
Se -13.725 -22.875 -16.775
Pb -13.725 -22.875 -13.725
Se -13.725 -22.875 -10.675
Pb -13.725 -22.875 -7.625
Se -13.725 -22.875 -4.575
Pb -13.725 -22.875 -1.525
Se -13.725 -22.875 1.525
Pb -13.725 -22.875 4.575
Se -13.725 -22.875 7.625
Pb -13.725 -22.875 10.675
Se -13.725 -22.875 13.725
Pb -13.725 -22.875 16.775
Se -13.725 -22.875 19.825
Pb -13.725 -22.875 22.875
Pb -13.725 -19.825 -22.875
Se -13.725 -19.825 -19.825
Pb -13.725 -19.825 -16.775
Se -13.725 -19.825 -13.725
Pb -13.725 -19.825 -10.675
Se -13.725 -19.825 -7.625
Pb -13.725 -19.825 -4.575
Se -13.725 -19.825 -1.525
Pb -13.725 -19.825 1.525
Se -13.725 -19.825 4.575
Pb -13.725 -19.825 7.625
Se -13.725 -19.825 10.675
Pb -13.725 -19.825 13.725
Se -13.725 -19.825 16.775
Pb -13.725 -19.825 19.825
Se -13.725 -19.825 22.875
Se -13.725 -16.775 -22.875
Pb -13.725 -16.775 -19.825
Se -13.725 -16.775 -16.775
Pb -13.725 -16.775 -13.725
Se -13.725 -16.775 -10.675
Pb -13.725 -16.775 -7.625
Se -13.725 -16.775 -4.575
Pb -13.725 -16.775 -1.525
Se -13.725 -16.775 1.525
Pb -13.725 -16.775 4.575
Se -13.725 -16.775 7.625
Pb -13.725 -16.775 10.675
Se -13.725 -16.775 13.725
Pb -13.725 -16.775 16.775
Se -13.725 -16.775 19.825
Pb -13.725 -16.775 22.875
Pb -13.725 -13.725 -22.875
Se -13.725 -13.725 -19.825
Pb -13.725 -13.725 -16.775
Se -13.725 -13.725 -13.725
Pb -13.725 -13.725 -10.675
Se -13.725 -13.725 -7.625
Pb -13.725 -13.725 -4.575
Se -13.725 -13.725 -1.525
Pb -13.725 -13.725 1.525
Se -13.725 -13.725 4.575
Pb -13.725 -13.725 7.625
Se -13.725 -13.725 10.675
Pb -13.725 -13.725 13.725
Se -13.725 -13.725 16.775
Pb -13.725 -13.725 19.825
Se -13.725 -13.725 22.875
Se -13.725 -10.675 -22.875
Pb -13.725 -10.675 -19.825
Se -13.725 -10.675 -16.775
Pb -13.725 -10.675 -13.725
Se -13.725 -10.675 -10.675
Pb -13.725 -10.675 -7.625
Se -13.725 -10.675 -4.575
Pb -13.725 -10.675 -1.525
Se -13.725 -10.675 1.525
Pb -13.725 -10.675 4.575
Se -13.725 -10.675 7.625
Pb -13.725 -10.675 10.675
Se -13.725 -10.675 13.725
Pb -13.725 -10.675 16.775
Se -13.725 -10.675 19.825
Pb -13.725 -10.675 22.875
Pb -13.725 -7.625 -22.875
Se -13.725 -7.625 -19.825
Pb -13.725 -7.625 -16.775
Se -13.725 -7.625 -13.725
Pb -13.725 -7.625 -10.675
Se -13.725 -7.625 -7.625
Pb -13.725 -7.625 -4.575
Se -13.725 -7.625 -1.525
Pb -13.725 -7.625 1.525
Se -13.725 -7.625 4.575
Pb -13.725 -7.625 7.625
Se -13.725 -7.625 10.675
Pb -13.725 -7.625 13.725
Se -13.725 -7.625 16.775
Pb -13.725 -7.625 19.825
Se -13.725 -7.625 22.875
Se -13.725 -4.575 -22.875
Pb -13.725 -4.575 -19.825
Se -13.725 -4.575 -16.775
Pb -13.725 -4.575 -13.725
Se -13.725 -4.575 -10.675
Pb -13.725 -4.575 -7.625
Se -13.725 -4.575 -4.575
Pb -13.725 -4.575 -1.525
Se -13.725 -4.575 1.525
Pb -13.725 -4.575 4.575
Se -13.725 -4.575 7.625
Pb -13.725 -4.575 10.675
Se -13.725 -4.575 13.725
Pb -13.725 -4.575 16.775
Se -13.725 -4.575 19.825
Pb -13.725 -4.575 22.875
Pb -13.725 -1.525 -22.875
Se -13.725 -1.525 -19.825
Pb -13.725 -1.525 -16.775
Se -13.725 -1.525 -13.725
Pb -13.725 -1.525 -10.675
Se -13.725 -1.525 -7.625
Pb -13.725 -1.525 -4.575
Se -13.725 -1.525 -1.525
Pb -13.725 -1.525 1.525
Se -13.725 -1.525 4.575
Pb -13.725 -1.525 7.625
Se -13.725 -1.525 10.675
Pb -13.725 -1.525 13.725
Se -13.725 -1.525 16.775
Pb -13.725 -1.525 19.825
Se -13.725 -1.525 22.875
Se -13.725 1.525 -22.875
Pb -13.725 1.525 -19.825
Se -13.725 1.525 -16.775
Pb -13.725 1.525 -13.725
Se -13.725 1.525 -10.675
Pb -13.725 1.525 -7.625
Se -13.725 1.525 -4.575
Pb -13.725 1.525 -1.525
Se -13.725 1.525 1.525
Pb -13.725 1.525 4.575
Se -13.725 1.525 7.625
Pb -13.725 1.525 10.675
Se -13.725 1.525 13.725
Pb -13.725 1.525 16.775
Se -13.725 1.525 19.825
Pb -13.725 1.525 22.875
Pb -13.725 4.575 -22.875
Se -13.725 4.575 -19.825
Pb -13.725 4.575 -16.775
Se -13.725 4.575 -13.725
Pb -13.725 4.575 -10.675
Se -13.725 4.575 -7.625
Pb -13.725 4.575 -4.575
Se -13.725 4.575 -1.525
Pb -13.725 4.575 1.525
Se -13.725 4.575 4.575
Pb -13.725 4.575 7.625
Se -13.725 4.575 10.675
Pb -13.725 4.575 13.725
Se -13.725 4.575 16.775
Pb -13.725 4.575 19.825
Se -13.725 4.575 22.875
Se -13.725 7.625 -22.875
Pb -13.725 7.625 -19.825
Se -13.725 7.625 -16.775
Pb -13.725 7.625 -13.725
Se -13.725 7.625 -10.675
Pb -13.725 7.625 -7.625
Se -13.725 7.625 -4.575
Pb -13.725 7.625 -1.525
Se -13.725 7.625 1.525
Pb -13.725 7.625 4.575
Se -13.725 7.625 7.625
Pb -13.725 7.625 10.675
Se -13.725 7.625 13.725
Pb -13.725 7.625 16.775
Se -13.725 7.625 19.825
Pb -13.725 7.625 22.875
Pb -13.725 10.675 -22.875
Se -13.725 10.675 -19.825
Pb -13.725 10.675 -16.775
Se -13.725 10.675 -13.725
Pb -13.725 10.675 -10.675
Se -13.725 10.675 -7.625
Pb -13.725 10.675 -4.575
Se -13.725 10.675 -1.525
Pb -13.725 10.675 1.525
Se -13.725 10.675 4.575
Pb -13.725 10.675 7.625
Se -13.725 10.675 10.675
Pb -13.725 10.675 13.725
Se -13.725 10.675 16.775
Pb -13.725 10.675 19.825
Se -13.725 10.675 22.875
Se -13.725 13.725 -22.875
Pb -13.725 13.725 -19.825
Se -13.725 13.725 -16.775
Pb -13.725 13.725 -13.725
Se -13.725 13.725 -10.675
Pb -13.725 13.725 -7.625
Se -13.725 13.725 -4.575
Pb -13.725 13.725 -1.525
Se -13.725 13.725 1.525
Pb -13.725 13.725 4.575
Se -13.725 13.725 7.625
Pb -13.725 13.725 10.675
Se -13.725 13.725 13.725
Pb -13.725 13.725 16.775
Se -13.725 13.725 19.825
Pb -13.725 13.725 22.875
Pb -13.725 16.775 -22.875
Se -13.725 16.775 -19.825
Pb -13.725 16.775 -16.775
Se -13.725 16.775 -13.725
Pb -13.725 16.775 -10.675
Se -13.725 16.775 -7.625
Pb -13.725 16.775 -4.575
Se -13.725 16.775 -1.525
Pb -13.725 16.775 1.525
Se -13.725 16.775 4.575
Pb -13.725 16.775 7.625
Se -13.725 16.775 10.675
Pb -13.725 16.775 13.725
Se -13.725 16.775 16.775
Pb -13.725 16.775 19.825
Se -13.725 16.775 22.875
Se -13.725 19.825 -22.875
Pb -13.725 19.825 -19.825
Se -13.725 19.825 -16.775
Pb -13.725 19.825 -13.725
Se -13.725 19.825 -10.675
Pb -13.725 19.825 -7.625
Se -13.725 19.825 -4.575
Pb -13.725 19.825 -1.525
Se -13.725 19.825 1.525
Pb -13.725 19.825 4.575
Se -13.725 19.825 7.625
Pb -13.725 19.825 10.675
Se -13.725 19.825 13.725
Pb -13.725 19.825 16.775
Se -13.725 19.825 19.825
Pb -13.725 19.825 22.875
Pb -13.725 22.875 -22.875
Se -13.725 22.875 -19.825
Pb -13.725 22.875 -16.775
Se -13.725 22.875 -13.725
Pb -13.725 22.875 -10.675
Se -13.725 22.875 -7.625
Pb -13.725 22.875 -4.575
Se -13.725 22.875 -1.525
Pb -13.725 22.875 1.525
Se -13.725 22.875 4.575
Pb -13.725 22.875 7.625
Se -13.725 22.875 10.675
Pb -13.725 22.875 13.725
Se -13.725 22.875 16.775
Pb -13.725 22.875 19.825
Se -13.725 22.875 22.875
Pb -10.675 -22.875 -22.875
Se -10.675 -22.875 -19.825
Pb -10.675 -22.875 -16.775
Se -10.675 -22.875 -13.725
Pb -10.675 -22.875 -10.675
Se -10.675 -22.875 -7.625
Pb -10.675 -22.875 -4.575
Se -10.675 -22.875 -1.525
Pb -10.675 -22.875 1.525
Se -10.675 -22.875 4.575
Pb -10.675 -22.875 7.625
Se -10.675 -22.875 10.675
Pb -10.675 -22.875 13.725
Se -10.675 -22.875 16.775
Pb -10.675 -22.875 19.825
Se -10.675 -22.875 22.875
Se -10.675 -19.825 -22.875
Pb -10.675 -19.825 -19.825
Se -10.675 -19.825 -16.775
Pb -10.675 -19.825 -13.725
Se -10.675 -19.825 -10.675
Pb -10.675 -19.825 -7.625
Se -10.675 -19.825 -4.575
Pb -10.675 -19.825 -1.525
Se -10.675 -19.825 1.525
Pb -10.675 -19.825 4.575
Se -10.675 -19.825 7.625
Pb -10.675 -19.825 10.675
Se -10.675 -19.825 13.725
Pb -10.675 -19.825 16.775
Se -10.675 -19.825 19.825
Pb -10.675 -19.825 22.875
Pb -10.675 -16.775 -22.875
Se -10.675 -16.775 -19.825
Pb -10.675 -16.775 -16.775
Se -10.675 -16.775 -13.725
Pb -10.675 -16.775 -10.675
Se -10.675 -16.775 -7.625
Pb -10.675 -16.775 -4.575
Se -10.675 -16.775 -1.525
Pb -10.675 -16.775 1.525
Se -10.675 -16.775 4.575
Pb -10.675 -16.775 7.625
Se -10.675 -16.775 10.675
Pb -10.675 -16.775 13.725
Se -10.675 -16.775 16.775
Pb -10.675 -16.775 19.825
Se -10.675 -16.775 22.875
Se -10.675 -13.725 -22.875
Pb -10.675 -13.725 -19.825
Se -10.675 -13.725 -16.775
Pb -10.675 -13.725 -13.725
Se -10.675 -13.725 -10.675
Pb -10.675 -13.725 -7.625
Se -10.675 -13.725 -4.575
Pb -10.675 -13.725 -1.525
Se -10.675 -13.725 1.525
Pb -10.675 -13.725 4.575
Se -10.675 -13.725 7.625
Pb -10.675 -13.725 10.675
Se -10.675 -13.725 13.725
Pb -10.675 -13.725 16.775
Se -10.675 -13.725 19.825
Pb -10.675 -13.725 22.875
Pb -10.675 -10.675 -22.875
Se -10.675 -10.675 -19.825
Pb -10.675 -10.675 -16.775
Se -10.675 -10.675 -13.725
Pb -10.675 -10.675 -10.675
Se -10.675 -10.675 -7.625
Pb -10.675 -10.675 -4.575
Se -10.675 -10.675 -1.525
Pb -10.675 -10.675 1.525
Se -10.675 -10.675 4.575
Pb -10.675 -10.675 7.625
Se -10.675 -10.675 10.675
Pb -10.675 -10.675 13.725
Se -10.675 -10.675 16.775
Pb -10.675 -10.675 19.825
Se -10.675 -10.675 22.875
Se -10.675 -7.625 -22.875
Pb -10.675 -7.625 -19.825
Se -10.675 -7.625 -16.775
Pb -10.675 -7.625 -13.725
Se -10.675 -7.625 -10.675
Pb -10.675 -7.625 -7.625
Se -10.675 -7.625 -4.575
Pb -10.675 -7.625 -1.525
Se -10.675 -7.625 1.525
Pb -10.675 -7.625 4.575
Se -10.675 -7.625 7.625
Pb -10.675 -7.625 10.675
Se -10.675 -7.625 13.725
Pb -10.675 -7.625 16.775
Se -10.675 -7.625 19.825
Pb -10.675 -7.625 22.875
Pb -10.675 -4.575 -22.875
Se -10.675 -4.575 -19.825
Pb -10.675 -4.575 -16.775
Se -10.675 -4.575 -13.725
Pb -10.675 -4.575 -10.675
Se -10.675 -4.575 -7.625
Pb -10.675 -4.575 -4.575
Se -10.675 -4.575 -1.525
Pb -10.675 -4.575 1.525
Se -10.675 -4.575 4.575
Pb -10.675 -4.575 7.625
Se -10.675 -4.575 10.675
Pb -10.675 -4.575 13.725
Se -10.675 -4.575 16.775
Pb -10.675 -4.575 19.825
Se -10.675 -4.575 22.875
Se -10.675 -1.525 -22.875
Pb -10.675 -1.525 -19.825
Se -10.675 -1.525 -16.775
Pb -10.675 -1.525 -13.725
Se -10.675 -1.525 -10.675
Pb -10.675 -1.525 -7.625
Se -10.675 -1.525 -4.575
Pb -10.675 -1.525 -1.525
Se -10.675 -1.525 1.525
Pb -10.675 -1.525 4.575
Se -10.675 -1.525 7.625
Pb -10.675 -1.525 10.675
Se -10.675 -1.525 13.725
Pb -10.675 -1.525 16.775
Se -10.675 -1.525 19.825
Pb -10.675 -1.525 22.875
Pb -10.675 1.525 -22.875
Se -10.675 1.525 -19.825
Pb -10.675 1.525 -16.775
Se -10.675 1.525 -13.725
Pb -10.675 1.525 -10.675
Se -10.675 1.525 -7.625
Pb -10.675 1.525 -4.575
Se -10.675 1.525 -1.525
Pb -10.675 1.525 1.525
Se -10.675 1.525 4.575
Pb -10.675 1.525 7.625
Se -10.675 1.525 10.675
Pb -10.675 1.525 13.725
Se -10.675 1.525 16.775
Pb -10.675 1.525 19.825
Se -10.675 1.525 22.875
Se -10.675 4.575 -22.875
Pb -10.675 4.575 -19.825
Se -10.675 4.575 -16.775
Pb -10.675 4.575 -13.725
Se -10.675 4.575 -10.675
Pb -10.675 4.575 -7.625
Se -10.675 4.575 -4.575
Pb -10.675 4.575 -1.525
Se -10.675 4.575 1.525
Pb -10.675 4.575 4.575
Se -10.675 4.575 7.625
Pb -10.675 4.575 10.675
Se -10.675 4.575 13.725
Pb -10.675 4.575 16.775
Se -10.675 4.575 19.825
Pb -10.675 4.575 22.875
Pb -10.675 7.625 -22.875
Se -10.675 7.625 -19.825
Pb -10.675 7.625 -16.775
Se -10.675 7.625 -13.725
Pb -10.675 7.625 -10.675
Se -10.675 7.625 -7.625
Pb -10.675 7.625 -4.575
Se -10.675 7.625 -1.525
Pb -10.675 7.625 1.525
Se -10.675 7.625 4.575
Pb -10.675 7.625 7.625
Se -10.675 7.625 10.675
Pb -10.675 7.625 13.725
Se -10.675 7.625 16.775
Pb -10.675 7.625 19.825
Se -10.675 7.625 22.875
Se -10.675 10.675 -22.875
Pb -10.675 10.675 -19.825
Se -10.675 10.675 -16.775
Pb -10.675 10.675 -13.725
Se -10.675 10.675 -10.675
Pb -10.675 10.675 -7.625
Se -10.675 10.675 -4.575
Pb -10.675 10.675 -1.525
Se -10.675 10.675 1.525
Pb -10.675 10.675 4.575
Se -10.675 10.675 7.625
Pb -10.675 10.675 10.675
Se -10.675 10.675 13.725
Pb -10.675 10.675 16.775
Se -10.675 10.675 19.825
Pb -10.675 10.675 22.875
Pb -10.675 13.725 -22.875
Se -10.675 13.725 -19.825
Pb -10.675 13.725 -16.775
Se -10.675 13.725 -13.725
Pb -10.675 13.725 -10.675
Se -10.675 13.725 -7.625
Pb -10.675 13.725 -4.575
Se -10.675 13.725 -1.525
Pb -10.675 13.725 1.525
Se -10.675 13.725 4.575
Pb -10.675 13.725 7.625
Se -10.675 13.725 10.675
Pb -10.675 13.725 13.725
Se -10.675 13.725 16.775
Pb -10.675 13.725 19.825
Se -10.675 13.725 22.875
Se -10.675 16.775 -22.875
Pb -10.675 16.775 -19.825
Se -10.675 16.775 -16.775
Pb -10.675 16.775 -13.725
Se -10.675 16.775 -10.675
Pb -10.675 16.775 -7.625
Se -10.675 16.775 -4.575
Pb -10.675 16.775 -1.525
Se -10.675 16.775 1.525
Pb -10.675 16.775 4.575
Se -10.675 16.775 7.625
Pb -10.675 16.775 10.675
Se -10.675 16.775 13.725
Pb -10.675 16.775 16.775
Se -10.675 16.775 19.825
Pb -10.675 16.775 22.875
Pb -10.675 19.825 -22.875
Se -10.675 19.825 -19.825
Pb -10.675 19.825 -16.775
Se -10.675 19.825 -13.725
Pb -10.675 19.825 -10.675
Se -10.675 19.825 -7.625
Pb -10.675 19.825 -4.575
Se -10.675 19.825 -1.525
Pb -10.675 19.825 1.525
Se -10.675 19.825 4.575
Pb -10.675 19.825 7.625
Se -10.675 19.825 10.675
Pb -10.675 19.825 13.725
Se -10.675 19.825 16.775
Pb -10.675 19.825 19.825
Se -10.675 19.825 22.875
Se -10.675 22.875 -22.875
Pb -10.675 22.875 -19.825
Se -10.675 22.875 -16.775
Pb -10.675 22.875 -13.725
Se -10.675 22.875 -10.675
Pb -10.675 22.875 -7.625
Se -10.675 22.875 -4.575
Pb -10.675 22.875 -1.525
Se -10.675 22.875 1.525
Pb -10.675 22.875 4.575
Se -10.675 22.875 7.625
Pb -10.675 22.875 10.675
Se -10.675 22.875 13.725
Pb -10.675 22.875 16.775
Se -10.675 22.875 19.825
Pb -10.675 22.875 22.875
Se -7.625 -22.875 -22.875
Pb -7.625 -22.875 -19.825
Se -7.625 -22.875 -16.775
Pb -7.625 -22.875 -13.725
Se -7.625 -22.875 -10.675
Pb -7.625 -22.875 -7.625
Se -7.625 -22.875 -4.575
Pb -7.625 -22.875 -1.525
Se -7.625 -22.875 1.525
Pb -7.625 -22.875 4.575
Se -7.625 -22.875 7.625
Pb -7.625 -22.875 10.675
Se -7.625 -22.875 13.725
Pb -7.625 -22.875 16.775
Se -7.625 -22.875 19.825
Pb -7.625 -22.875 22.875
Pb -7.625 -19.825 -22.875
Se -7.625 -19.825 -19.825
Pb -7.625 -19.825 -16.775
Se -7.625 -19.825 -13.725
Pb -7.625 -19.825 -10.675
Se -7.625 -19.825 -7.625
Pb -7.625 -19.825 -4.575
Se -7.625 -19.825 -1.525
Pb -7.625 -19.825 1.525
Se -7.625 -19.825 4.575
Pb -7.625 -19.825 7.625
Se -7.625 -19.825 10.675
Pb -7.625 -19.825 13.725
Se -7.625 -19.825 16.775
Pb -7.625 -19.825 19.825
Se -7.625 -19.825 22.875
Se -7.625 -16.775 -22.875
Pb -7.625 -16.775 -19.825
Se -7.625 -16.775 -16.775
Pb -7.625 -16.775 -13.725
Se -7.625 -16.775 -10.675
Pb -7.625 -16.775 -7.625
Se -7.625 -16.775 -4.575
Pb -7.625 -16.775 -1.525
Se -7.625 -16.775 1.525
Pb -7.625 -16.775 4.575
Se -7.625 -16.775 7.625
Pb -7.625 -16.775 10.675
Se -7.625 -16.775 13.725
Pb -7.625 -16.775 16.775
Se -7.625 -16.775 19.825
Pb -7.625 -16.775 22.875
Pb -7.625 -13.725 -22.875
Se -7.625 -13.725 -19.825
Pb -7.625 -13.725 -16.775
Se -7.625 -13.725 -13.725
Pb -7.625 -13.725 -10.675
Se -7.625 -13.725 -7.625
Pb -7.625 -13.725 -4.575
Se -7.625 -13.725 -1.525
Pb -7.625 -13.725 1.525
Se -7.625 -13.725 4.575
Pb -7.625 -13.725 7.625
Se -7.625 -13.725 10.675
Pb -7.625 -13.725 13.725
Se -7.625 -13.725 16.775
Pb -7.625 -13.725 19.825
Se -7.625 -13.725 22.875
Se -7.625 -10.675 -22.875
Pb -7.625 -10.675 -19.825
Se -7.625 -10.675 -16.775
Pb -7.625 -10.675 -13.725
Se -7.625 -10.675 -10.675
Pb -7.625 -10.675 -7.625
Se -7.625 -10.675 -4.575
Pb -7.625 -10.675 -1.525
Se -7.625 -10.675 1.525
Pb -7.625 -10.675 4.575
Se -7.625 -10.675 7.625
Pb -7.625 -10.675 10.675
Se -7.625 -10.675 13.725
Pb -7.625 -10.675 16.775
Se -7.625 -10.675 19.825
Pb -7.625 -10.675 22.875
Pb -7.625 -7.625 -22.875
Se -7.625 -7.625 -19.825
Pb -7.625 -7.625 -16.775
Se -7.625 -7.625 -13.725
Pb -7.625 -7.625 -10.675
Se -7.625 -7.625 -7.625
Pb -7.625 -7.625 -4.575
Se -7.625 -7.625 -1.525
Pb -7.625 -7.625 1.525
Se -7.625 -7.625 4.575
Pb -7.625 -7.625 7.625
Se -7.625 -7.625 10.675
Pb -7.625 -7.625 13.725
Se -7.625 -7.625 16.775
Pb -7.625 -7.625 19.825
Se -7.625 -7.625 22.875
Se -7.625 -4.575 -22.875
Pb -7.625 -4.575 -19.825
Se -7.625 -4.575 -16.775
Pb -7.625 -4.575 -13.725
Se -7.625 -4.575 -10.675
Pb -7.625 -4.575 -7.625
Se -7.625 -4.575 -4.575
Pb -7.625 -4.575 -1.525
Se -7.625 -4.575 1.525
Pb -7.625 -4.575 4.575
Se -7.625 -4.575 7.625
Pb -7.625 -4.575 10.675
Se -7.625 -4.575 13.725
Pb -7.625 -4.575 16.775
Se -7.625 -4.575 19.825
Pb -7.625 -4.575 22.875
Pb -7.625 -1.525 -22.875
Se -7.625 -1.525 -19.825
Pb -7.625 -1.525 -16.775
Se -7.625 -1.525 -13.725
Pb -7.625 -1.525 -10.675
Se -7.625 -1.525 -7.625
Pb -7.625 -1.525 -4.575
Se -7.625 -1.525 -1.525
Pb -7.625 -1.525 1.525
Se -7.625 -1.525 4.575
Pb -7.625 -1.525 7.625
Se -7.625 -1.525 10.675
Pb -7.625 -1.525 13.725
Se -7.625 -1.525 16.775
Pb -7.625 -1.525 19.825
Se -7.625 -1.525 22.875
Se -7.625 1.525 -22.875
Pb -7.625 1.525 -19.825
Se -7.625 1.525 -16.775
Pb -7.625 1.525 -13.725
Se -7.625 1.525 -10.675
Pb -7.625 1.525 -7.625
Se -7.625 1.525 -4.575
Pb -7.625 1.525 -1.525
Se -7.625 1.525 1.525
Pb -7.625 1.525 4.575
Se -7.625 1.525 7.625
Pb -7.625 1.525 10.675
Se -7.625 1.525 13.725
Pb -7.625 1.525 16.775
Se -7.625 1.525 19.825
Pb -7.625 1.525 22.875
Pb -7.625 4.575 -22.875
Se -7.625 4.575 -19.825
Pb -7.625 4.575 -16.775
Se -7.625 4.575 -13.725
Pb -7.625 4.575 -10.675
Se -7.625 4.575 -7.625
Pb -7.625 4.575 -4.575
Se -7.625 4.575 -1.525
Pb -7.625 4.575 1.525
Se -7.625 4.575 4.575
Pb -7.625 4.575 7.625
Se -7.625 4.575 10.675
Pb -7.625 4.575 13.725
Se -7.625 4.575 16.775
Pb -7.625 4.575 19.825
Se -7.625 4.575 22.875
Se -7.625 7.625 -22.875
Pb -7.625 7.625 -19.825
Se -7.625 7.625 -16.775
Pb -7.625 7.625 -13.725
Se -7.625 7.625 -10.675
Pb -7.625 7.625 -7.625
Se -7.625 7.625 -4.575
Pb -7.625 7.625 -1.525
Se -7.625 7.625 1.525
Pb -7.625 7.625 4.575
Se -7.625 7.625 7.625
Pb -7.625 7.625 10.675
Se -7.625 7.625 13.725
Pb -7.625 7.625 16.775
Se -7.625 7.625 19.825
Pb -7.625 7.625 22.875
Pb -7.625 10.675 -22.875
Se -7.625 10.675 -19.825
Pb -7.625 10.675 -16.775
Se -7.625 10.675 -13.725
Pb -7.625 10.675 -10.675
Se -7.625 10.675 -7.625
Pb -7.625 10.675 -4.575
Se -7.625 10.675 -1.525
Pb -7.625 10.675 1.525
Se -7.625 10.675 4.575
Pb -7.625 10.675 7.625
Se -7.625 10.675 10.675
Pb -7.625 10.675 13.725
Se -7.625 10.675 16.775
Pb -7.625 10.675 19.825
Se -7.625 10.675 22.875
Se -7.625 13.725 -22.875
Pb -7.625 13.725 -19.825
Se -7.625 13.725 -16.775
Pb -7.625 13.725 -13.725
Se -7.625 13.725 -10.675
Pb -7.625 13.725 -7.625
Se -7.625 13.725 -4.575
Pb -7.625 13.725 -1.525
Se -7.625 13.725 1.525
Pb -7.625 13.725 4.575
Se -7.625 13.725 7.625
Pb -7.625 13.725 10.675
Se -7.625 13.725 13.725
Pb -7.625 13.725 16.775
Se -7.625 13.725 19.825
Pb -7.625 13.725 22.875
Pb -7.625 16.775 -22.875
Se -7.625 16.775 -19.825
Pb -7.625 16.775 -16.775
Se -7.625 16.775 -13.725
Pb -7.625 16.775 -10.675
Se -7.625 16.775 -7.625
Pb -7.625 16.775 -4.575
Se -7.625 16.775 -1.525
Pb -7.625 16.775 1.525
Se -7.625 16.775 4.575
Pb -7.625 16.775 7.625
Se -7.625 16.775 10.675
Pb -7.625 16.775 13.725
Se -7.625 16.775 16.775
Pb -7.625 16.775 19.825
Se -7.625 16.775 22.875
Se -7.625 19.825 -22.875
Pb -7.625 19.825 -19.825
Se -7.625 19.825 -16.775
Pb -7.625 19.825 -13.725
Se -7.625 19.825 -10.675
Pb -7.625 19.825 -7.625
Se -7.625 19.825 -4.575
Pb -7.625 19.825 -1.525
Se -7.625 19.825 1.525
Pb -7.625 19.825 4.575
Se -7.625 19.825 7.625
Pb -7.625 19.825 10.675
Se -7.625 19.825 13.725
Pb -7.625 19.825 16.775
Se -7.625 19.825 19.825
Pb -7.625 19.825 22.875
Pb -7.625 22.875 -22.875
Se -7.625 22.875 -19.825
Pb -7.625 22.875 -16.775
Se -7.625 22.875 -13.725
Pb -7.625 22.875 -10.675
Se -7.625 22.875 -7.625
Pb -7.625 22.875 -4.575
Se -7.625 22.875 -1.525
Pb -7.625 22.875 1.525
Se -7.625 22.875 4.575
Pb -7.625 22.875 7.625
Se -7.625 22.875 10.675
Pb -7.625 22.875 13.725
Se -7.625 22.875 16.775
Pb -7.625 22.875 19.825
Se -7.625 22.875 22.875
Pb -4.575 -22.875 -22.875
Se -4.575 -22.875 -19.825
Pb -4.575 -22.875 -16.775
Se -4.575 -22.875 -13.725
Pb -4.575 -22.875 -10.675
Se -4.575 -22.875 -7.625
Pb -4.575 -22.875 -4.575
Se -4.575 -22.875 -1.525
Pb -4.575 -22.875 1.525
Se -4.575 -22.875 4.575
Pb -4.575 -22.875 7.625
Se -4.575 -22.875 10.675
Pb -4.575 -22.875 13.725
Se -4.575 -22.875 16.775
Pb -4.575 -22.875 19.825
Se -4.575 -22.875 22.875
Se -4.575 -19.825 -22.875
Pb -4.575 -19.825 -19.825
Se -4.575 -19.825 -16.775
Pb -4.575 -19.825 -13.725
Se -4.575 -19.825 -10.675
Pb -4.575 -19.825 -7.625
Se -4.575 -19.825 -4.575
Pb -4.575 -19.825 -1.525
Se -4.575 -19.825 1.525
Pb -4.575 -19.825 4.575
Se -4.575 -19.825 7.625
Pb -4.575 -19.825 10.675
Se -4.575 -19.825 13.725
Pb -4.575 -19.825 16.775
Se -4.575 -19.825 19.825
Pb -4.575 -19.825 22.875
Pb -4.575 -16.775 -22.875
Se -4.575 -16.775 -19.825
Pb -4.575 -16.775 -16.775
Se -4.575 -16.775 -13.725
Pb -4.575 -16.775 -10.675
Se -4.575 -16.775 -7.625
Pb -4.575 -16.775 -4.575
Se -4.575 -16.775 -1.525
Pb -4.575 -16.775 1.525
Se -4.575 -16.775 4.575
Pb -4.575 -16.775 7.625
Se -4.575 -16.775 10.675
Pb -4.575 -16.775 13.725
Se -4.575 -16.775 16.775
Pb -4.575 -16.775 19.825
Se -4.575 -16.775 22.875
Se -4.575 -13.725 -22.875
Pb -4.575 -13.725 -19.825
Se -4.575 -13.725 -16.775
Pb -4.575 -13.725 -13.725
Se -4.575 -13.725 -10.675
Pb -4.575 -13.725 -7.625
Se -4.575 -13.725 -4.575
Pb -4.575 -13.725 -1.525
Se -4.575 -13.725 1.525
Pb -4.575 -13.725 4.575
Se -4.575 -13.725 7.625
Pb -4.575 -13.725 10.675
Se -4.575 -13.725 13.725
Pb -4.575 -13.725 16.775
Se -4.575 -13.725 19.825
Pb -4.575 -13.725 22.875
Pb -4.575 -10.675 -22.875
Se -4.575 -10.675 -19.825
Pb -4.575 -10.675 -16.775
Se -4.575 -10.675 -13.725
Pb -4.575 -10.675 -10.675
Se -4.575 -10.675 -7.625
Pb -4.575 -10.675 -4.575
Se -4.575 -10.675 -1.525
Pb -4.575 -10.675 1.525
Se -4.575 -10.675 4.575
Pb -4.575 -10.675 7.625
Se -4.575 -10.675 10.675
Pb -4.575 -10.675 13.725
Se -4.575 -10.675 16.775
Pb -4.575 -10.675 19.825
Se -4.575 -10.675 22.875
Se -4.575 -7.625 -22.875
Pb -4.575 -7.625 -19.825
Se -4.575 -7.625 -16.775
Pb -4.575 -7.625 -13.725
Se -4.575 -7.625 -10.675
Pb -4.575 -7.625 -7.625
Se -4.575 -7.625 -4.575
Pb -4.575 -7.625 -1.525
Se -4.575 -7.625 1.525
Pb -4.575 -7.625 4.575
Se -4.575 -7.625 7.625
Pb -4.575 -7.625 10.675
Se -4.575 -7.625 13.725
Pb -4.575 -7.625 16.775
Se -4.575 -7.625 19.825
Pb -4.575 -7.625 22.875
Pb -4.575 -4.575 -22.875
Se -4.575 -4.575 -19.825
Pb -4.575 -4.575 -16.775
Se -4.575 -4.575 -13.725
Pb -4.575 -4.575 -10.675
Se -4.575 -4.575 -7.625
Pb -4.575 -4.575 -4.575
Se -4.575 -4.575 -1.525
Pb -4.575 -4.575 1.525
Se -4.575 -4.575 4.575
Pb -4.575 -4.575 7.625
Se -4.575 -4.575 10.675
Pb -4.575 -4.575 13.725
Se -4.575 -4.575 16.775
Pb -4.575 -4.575 19.825
Se -4.575 -4.575 22.875
Se -4.575 -1.525 -22.875
Pb -4.575 -1.525 -19.825
Se -4.575 -1.525 -16.775
Pb -4.575 -1.525 -13.725
Se -4.575 -1.525 -10.675
Pb -4.575 -1.525 -7.625
Se -4.575 -1.525 -4.575
Pb -4.575 -1.525 -1.525
Se -4.575 -1.525 1.525
Pb -4.575 -1.525 4.575
Se -4.575 -1.525 7.625
Pb -4.575 -1.525 10.675
Se -4.575 -1.525 13.725
Pb -4.575 -1.525 16.775
Se -4.575 -1.525 19.825
Pb -4.575 -1.525 22.875
Pb -4.575 1.525 -22.875
Se -4.575 1.525 -19.825
Pb -4.575 1.525 -16.775
Se -4.575 1.525 -13.725
Pb -4.575 1.525 -10.675
Se -4.575 1.525 -7.625
Pb -4.575 1.525 -4.575
Se -4.575 1.525 -1.525
Pb -4.575 1.525 1.525
Se -4.575 1.525 4.575
Pb -4.575 1.525 7.625
Se -4.575 1.525 10.675
Pb -4.575 1.525 13.725
Se -4.575 1.525 16.775
Pb -4.575 1.525 19.825
Se -4.575 1.525 22.875
Se -4.575 4.575 -22.875
Pb -4.575 4.575 -19.825
Se -4.575 4.575 -16.775
Pb -4.575 4.575 -13.725
Se -4.575 4.575 -10.675
Pb -4.575 4.575 -7.625
Se -4.575 4.575 -4.575
Pb -4.575 4.575 -1.525
Se -4.575 4.575 1.525
Pb -4.575 4.575 4.575
Se -4.575 4.575 7.625
Pb -4.575 4.575 10.675
Se -4.575 4.575 13.725
Pb -4.575 4.575 16.775
Se -4.575 4.575 19.825
Pb -4.575 4.575 22.875
Pb -4.575 7.625 -22.875
Se -4.575 7.625 -19.825
Pb -4.575 7.625 -16.775
Se -4.575 7.625 -13.725
Pb -4.575 7.625 -10.675
Se -4.575 7.625 -7.625
Pb -4.575 7.625 -4.575
Se -4.575 7.625 -1.525
Pb -4.575 7.625 1.525
Se -4.575 7.625 4.575
Pb -4.575 7.625 7.625
Se -4.575 7.625 10.675
Pb -4.575 7.625 13.725
Se -4.575 7.625 16.775
Pb -4.575 7.625 19.825
Se -4.575 7.625 22.875
Se -4.575 10.675 -22.875
Pb -4.575 10.675 -19.825
Se -4.575 10.675 -16.775
Pb -4.575 10.675 -13.725
Se -4.575 10.675 -10.675
Pb -4.575 10.675 -7.625
Se -4.575 10.675 -4.575
Pb -4.575 10.675 -1.525
Se -4.575 10.675 1.525
Pb -4.575 10.675 4.575
Se -4.575 10.675 7.625
Pb -4.575 10.675 10.675
Se -4.575 10.675 13.725
Pb -4.575 10.675 16.775
Se -4.575 10.675 19.825
Pb -4.575 10.675 22.875
Pb -4.575 13.725 -22.875
Se -4.575 13.725 -19.825
Pb -4.575 13.725 -16.775
Se -4.575 13.725 -13.725
Pb -4.575 13.725 -10.675
Se -4.575 13.725 -7.625
Pb -4.575 13.725 -4.575
Se -4.575 13.725 -1.525
Pb -4.575 13.725 1.525
Se -4.575 13.725 4.575
Pb -4.575 13.725 7.625
Se -4.575 13.725 10.675
Pb -4.575 13.725 13.725
Se -4.575 13.725 16.775
Pb -4.575 13.725 19.825
Se -4.575 13.725 22.875
Se -4.575 16.775 -22.875
Pb -4.575 16.775 -19.825
Se -4.575 16.775 -16.775
Pb -4.575 16.775 -13.725
Se -4.575 16.775 -10.675
Pb -4.575 16.775 -7.625
Se -4.575 16.775 -4.575
Pb -4.575 16.775 -1.525
Se -4.575 16.775 1.525
Pb -4.575 16.775 4.575
Se -4.575 16.775 7.625
Pb -4.575 16.775 10.675
Se -4.575 16.775 13.725
Pb -4.575 16.775 16.775
Se -4.575 16.775 19.825
Pb -4.575 16.775 22.875
Pb -4.575 19.825 -22.875
Se -4.575 19.825 -19.825
Pb -4.575 19.825 -16.775
Se -4.575 19.825 -13.725
Pb -4.575 19.825 -10.675
Se -4.575 19.825 -7.625
Pb -4.575 19.825 -4.575
Se -4.575 19.825 -1.525
Pb -4.575 19.825 1.525
Se -4.575 19.825 4.575
Pb -4.575 19.825 7.625
Se -4.575 19.825 10.675
Pb -4.575 19.825 13.725
Se -4.575 19.825 16.775
Pb -4.575 19.825 19.825
Se -4.575 19.825 22.875
Se -4.575 22.875 -22.875
Pb -4.575 22.875 -19.825
Se -4.575 22.875 -16.775
Pb -4.575 22.875 -13.725
Se -4.575 22.875 -10.675
Pb -4.575 22.875 -7.625
Se -4.575 22.875 -4.575
Pb -4.575 22.875 -1.525
Se -4.575 22.875 1.525
Pb -4.575 22.875 4.575
Se -4.575 22.875 7.625
Pb -4.575 22.875 10.675
Se -4.575 22.875 13.725
Pb -4.575 22.875 16.775
Se -4.575 22.875 19.825
Pb -4.575 22.875 22.875
Se -1.525 -22.875 -22.875
Pb -1.525 -22.875 -19.825
Se -1.525 -22.875 -16.775
Pb -1.525 -22.875 -13.725
Se -1.525 -22.875 -10.675
Pb -1.525 -22.875 -7.625
Se -1.525 -22.875 -4.575
Pb -1.525 -22.875 -1.525
Se -1.525 -22.875 1.525
Pb -1.525 -22.875 4.575
Se -1.525 -22.875 7.625
Pb -1.525 -22.875 10.675
Se -1.525 -22.875 13.725
Pb -1.525 -22.875 16.775
Se -1.525 -22.875 19.825
Pb -1.525 -22.875 22.875
Pb -1.525 -19.825 -22.875
Se -1.525 -19.825 -19.825
Pb -1.525 -19.825 -16.775
Se -1.525 -19.825 -13.725
Pb -1.525 -19.825 -10.675
Se -1.525 -19.825 -7.625
Pb -1.525 -19.825 -4.575
Se -1.525 -19.825 -1.525
Pb -1.525 -19.825 1.525
Se -1.525 -19.825 4.575
Pb -1.525 -19.825 7.625
Se -1.525 -19.825 10.675
Pb -1.525 -19.825 13.725
Se -1.525 -19.825 16.775
Pb -1.525 -19.825 19.825
Se -1.525 -19.825 22.875
Se -1.525 -16.775 -22.875
Pb -1.525 -16.775 -19.825
Se -1.525 -16.775 -16.775
Pb -1.525 -16.775 -13.725
Se -1.525 -16.775 -10.675
Pb -1.525 -16.775 -7.625
Se -1.525 -16.775 -4.575
Pb -1.525 -16.775 -1.525
Se -1.525 -16.775 1.525
Pb -1.525 -16.775 4.575
Se -1.525 -16.775 7.625
Pb -1.525 -16.775 10.675
Se -1.525 -16.775 13.725
Pb -1.525 -16.775 16.775
Se -1.525 -16.775 19.825
Pb -1.525 -16.775 22.875
Pb -1.525 -13.725 -22.875
Se -1.525 -13.725 -19.825
Pb -1.525 -13.725 -16.775
Se -1.525 -13.725 -13.725
Pb -1.525 -13.725 -10.675
Se -1.525 -13.725 -7.625
Pb -1.525 -13.725 -4.575
Se -1.525 -13.725 -1.525
Pb -1.525 -13.725 1.525
Se -1.525 -13.725 4.575
Pb -1.525 -13.725 7.625
Se -1.525 -13.725 10.675
Pb -1.525 -13.725 13.725
Se -1.525 -13.725 16.775
Pb -1.525 -13.725 19.825
Se -1.525 -13.725 22.875
Se -1.525 -10.675 -22.875
Pb -1.525 -10.675 -19.825
Se -1.525 -10.675 -16.775
Pb -1.525 -10.675 -13.725
Se -1.525 -10.675 -10.675
Pb -1.525 -10.675 -7.625
Se -1.525 -10.675 -4.575
Pb -1.525 -10.675 -1.525
Se -1.525 -10.675 1.525
Pb -1.525 -10.675 4.575
Se -1.525 -10.675 7.625
Pb -1.525 -10.675 10.675
Se -1.525 -10.675 13.725
Pb -1.525 -10.675 16.775
Se -1.525 -10.675 19.825
Pb -1.525 -10.675 22.875
Pb -1.525 -7.625 -22.875
Se -1.525 -7.625 -19.825
Pb -1.525 -7.625 -16.775
Se -1.525 -7.625 -13.725
Pb -1.525 -7.625 -10.675
Se -1.525 -7.625 -7.625
Pb -1.525 -7.625 -4.575
Se -1.525 -7.625 -1.525
Pb -1.525 -7.625 1.525
Se -1.525 -7.625 4.575
Pb -1.525 -7.625 7.625
Se -1.525 -7.625 10.675
Pb -1.525 -7.625 13.725
Se -1.525 -7.625 16.775
Pb -1.525 -7.625 19.825
Se -1.525 -7.625 22.875
Se -1.525 -4.575 -22.875
Pb -1.525 -4.575 -19.825
Se -1.525 -4.575 -16.775
Pb -1.525 -4.575 -13.725
Se -1.525 -4.575 -10.675
Pb -1.525 -4.575 -7.625
Se -1.525 -4.575 -4.575
Pb -1.525 -4.575 -1.525
Se -1.525 -4.575 1.525
Pb -1.525 -4.575 4.575
Se -1.525 -4.575 7.625
Pb -1.525 -4.575 10.675
Se -1.525 -4.575 13.725
Pb -1.525 -4.575 16.775
Se -1.525 -4.575 19.825
Pb -1.525 -4.575 22.875
Pb -1.525 -1.525 -22.875
Se -1.525 -1.525 -19.825
Pb -1.525 -1.525 -16.775
Se -1.525 -1.525 -13.725
Pb -1.525 -1.525 -10.675
Se -1.525 -1.525 -7.625
Pb -1.525 -1.525 -4.575
Se -1.525 -1.525 -1.525
Pb -1.525 -1.525 1.525
Se -1.525 -1.525 4.575
Pb -1.525 -1.525 7.625
Se -1.525 -1.525 10.675
Pb -1.525 -1.525 13.725
Se -1.525 -1.525 16.775
Pb -1.525 -1.525 19.825
Se -1.525 -1.525 22.875
Se -1.525 1.525 -22.875
Pb -1.525 1.525 -19.825
Se -1.525 1.525 -16.775
Pb -1.525 1.525 -13.725
Se -1.525 1.525 -10.675
Pb -1.525 1.525 -7.625
Se -1.525 1.525 -4.575
Pb -1.525 1.525 -1.525
Se -1.525 1.525 1.525
Pb -1.525 1.525 4.575
Se -1.525 1.525 7.625
Pb -1.525 1.525 10.675
Se -1.525 1.525 13.725
Pb -1.525 1.525 16.775
Se -1.525 1.525 19.825
Pb -1.525 1.525 22.875
Pb -1.525 4.575 -22.875
Se -1.525 4.575 -19.825
Pb -1.525 4.575 -16.775
Se -1.525 4.575 -13.725
Pb -1.525 4.575 -10.675
Se -1.525 4.575 -7.625
Pb -1.525 4.575 -4.575
Se -1.525 4.575 -1.525
Pb -1.525 4.575 1.525
Se -1.525 4.575 4.575
Pb -1.525 4.575 7.625
Se -1.525 4.575 10.675
Pb -1.525 4.575 13.725
Se -1.525 4.575 16.775
Pb -1.525 4.575 19.825
Se -1.525 4.575 22.875
Se -1.525 7.625 -22.875
Pb -1.525 7.625 -19.825
Se -1.525 7.625 -16.775
Pb -1.525 7.625 -13.725
Se -1.525 7.625 -10.675
Pb -1.525 7.625 -7.625
Se -1.525 7.625 -4.575
Pb -1.525 7.625 -1.525
Se -1.525 7.625 1.525
Pb -1.525 7.625 4.575
Se -1.525 7.625 7.625
Pb -1.525 7.625 10.675
Se -1.525 7.625 13.725
Pb -1.525 7.625 16.775
Se -1.525 7.625 19.825
Pb -1.525 7.625 22.875
Pb -1.525 10.675 -22.875
Se -1.525 10.675 -19.825
Pb -1.525 10.675 -16.775
Se -1.525 10.675 -13.725
Pb -1.525 10.675 -10.675
Se -1.525 10.675 -7.625
Pb -1.525 10.675 -4.575
Se -1.525 10.675 -1.525
Pb -1.525 10.675 1.525
Se -1.525 10.675 4.575
Pb -1.525 10.675 7.625
Se -1.525 10.675 10.675
Pb -1.525 10.675 13.725
Se -1.525 10.675 16.775
Pb -1.525 10.675 19.825
Se -1.525 10.675 22.875
Se -1.525 13.725 -22.875
Pb -1.525 13.725 -19.825
Se -1.525 13.725 -16.775
Pb -1.525 13.725 -13.725
Se -1.525 13.725 -10.675
Pb -1.525 13.725 -7.625
Se -1.525 13.725 -4.575
Pb -1.525 13.725 -1.525
Se -1.525 13.725 1.525
Pb -1.525 13.725 4.575
Se -1.525 13.725 7.625
Pb -1.525 13.725 10.675
Se -1.525 13.725 13.725
Pb -1.525 13.725 16.775
Se -1.525 13.725 19.825
Pb -1.525 13.725 22.875
Pb -1.525 16.775 -22.875
Se -1.525 16.775 -19.825
Pb -1.525 16.775 -16.775
Se -1.525 16.775 -13.725
Pb -1.525 16.775 -10.675
Se -1.525 16.775 -7.625
Pb -1.525 16.775 -4.575
Se -1.525 16.775 -1.525
Pb -1.525 16.775 1.525
Se -1.525 16.775 4.575
Pb -1.525 16.775 7.625
Se -1.525 16.775 10.675
Pb -1.525 16.775 13.725
Se -1.525 16.775 16.775
Pb -1.525 16.775 19.825
Se -1.525 16.775 22.875
Se -1.525 19.825 -22.875
Pb -1.525 19.825 -19.825
Se -1.525 19.825 -16.775
Pb -1.525 19.825 -13.725
Se -1.525 19.825 -10.675
Pb -1.525 19.825 -7.625
Se -1.525 19.825 -4.575
Pb -1.525 19.825 -1.525
Se -1.525 19.825 1.525
Pb -1.525 19.825 4.575
Se -1.525 19.825 7.625
Pb -1.525 19.825 10.675
Se -1.525 19.825 13.725
Pb -1.525 19.825 16.775
Se -1.525 19.825 19.825
Pb -1.525 19.825 22.875
Pb -1.525 22.875 -22.875
Se -1.525 22.875 -19.825
Pb -1.525 22.875 -16.775
Se -1.525 22.875 -13.725
Pb -1.525 22.875 -10.675
Se -1.525 22.875 -7.625
Pb -1.525 22.875 -4.575
Se -1.525 22.875 -1.525
Pb -1.525 22.875 1.525
Se -1.525 22.875 4.575
Pb -1.525 22.875 7.625
Se -1.525 22.875 10.675
Pb -1.525 22.875 13.725
Se -1.525 22.875 16.775
Pb -1.525 22.875 19.825
Se -1.525 22.875 22.875
Pb 1.525 -22.875 -22.875
Se 1.525 -22.875 -19.825
Pb 1.525 -22.875 -16.775
Se 1.525 -22.875 -13.725
Pb 1.525 -22.875 -10.675
Se 1.525 -22.875 -7.625
Pb 1.525 -22.875 -4.575
Se 1.525 -22.875 -1.525
Pb 1.525 -22.875 1.525
Se 1.525 -22.875 4.575
Pb 1.525 -22.875 7.625
Se 1.525 -22.875 10.675
Pb 1.525 -22.875 13.725
Se 1.525 -22.875 16.775
Pb 1.525 -22.875 19.825
Se 1.525 -22.875 22.875
Se 1.525 -19.825 -22.875
Pb 1.525 -19.825 -19.825
Se 1.525 -19.825 -16.775
Pb 1.525 -19.825 -13.725
Se 1.525 -19.825 -10.675
Pb 1.525 -19.825 -7.625
Se 1.525 -19.825 -4.575
Pb 1.525 -19.825 -1.525
Se 1.525 -19.825 1.525
Pb 1.525 -19.825 4.575
Se 1.525 -19.825 7.625
Pb 1.525 -19.825 10.675
Se 1.525 -19.825 13.725
Pb 1.525 -19.825 16.775
Se 1.525 -19.825 19.825
Pb 1.525 -19.825 22.875
Pb 1.525 -16.775 -22.875
Se 1.525 -16.775 -19.825
Pb 1.525 -16.775 -16.775
Se 1.525 -16.775 -13.725
Pb 1.525 -16.775 -10.675
Se 1.525 -16.775 -7.625
Pb 1.525 -16.775 -4.575
Se 1.525 -16.775 -1.525
Pb 1.525 -16.775 1.525
Se 1.525 -16.775 4.575
Pb 1.525 -16.775 7.625
Se 1.525 -16.775 10.675
Pb 1.525 -16.775 13.725
Se 1.525 -16.775 16.775
Pb 1.525 -16.775 19.825
Se 1.525 -16.775 22.875
Se 1.525 -13.725 -22.875
Pb 1.525 -13.725 -19.825
Se 1.525 -13.725 -16.775
Pb 1.525 -13.725 -13.725
Se 1.525 -13.725 -10.675
Pb 1.525 -13.725 -7.625
Se 1.525 -13.725 -4.575
Pb 1.525 -13.725 -1.525
Se 1.525 -13.725 1.525
Pb 1.525 -13.725 4.575
Se 1.525 -13.725 7.625
Pb 1.525 -13.725 10.675
Se 1.525 -13.725 13.725
Pb 1.525 -13.725 16.775
Se 1.525 -13.725 19.825
Pb 1.525 -13.725 22.875
Pb 1.525 -10.675 -22.875
Se 1.525 -10.675 -19.825
Pb 1.525 -10.675 -16.775
Se 1.525 -10.675 -13.725
Pb 1.525 -10.675 -10.675
Se 1.525 -10.675 -7.625
Pb 1.525 -10.675 -4.575
Se 1.525 -10.675 -1.525
Pb 1.525 -10.675 1.525
Se 1.525 -10.675 4.575
Pb 1.525 -10.675 7.625
Se 1.525 -10.675 10.675
Pb 1.525 -10.675 13.725
Se 1.525 -10.675 16.775
Pb 1.525 -10.675 19.825
Se 1.525 -10.675 22.875
Se 1.525 -7.625 -22.875
Pb 1.525 -7.625 -19.825
Se 1.525 -7.625 -16.775
Pb 1.525 -7.625 -13.725
Se 1.525 -7.625 -10.675
Pb 1.525 -7.625 -7.625
Se 1.525 -7.625 -4.575
Pb 1.525 -7.625 -1.525
Se 1.525 -7.625 1.525
Pb 1.525 -7.625 4.575
Se 1.525 -7.625 7.625
Pb 1.525 -7.625 10.675
Se 1.525 -7.625 13.725
Pb 1.525 -7.625 16.775
Se 1.525 -7.625 19.825
Pb 1.525 -7.625 22.875
Pb 1.525 -4.575 -22.875
Se 1.525 -4.575 -19.825
Pb 1.525 -4.575 -16.775
Se 1.525 -4.575 -13.725
Pb 1.525 -4.575 -10.675
Se 1.525 -4.575 -7.625
Pb 1.525 -4.575 -4.575
Se 1.525 -4.575 -1.525
Pb 1.525 -4.575 1.525
Se 1.525 -4.575 4.575
Pb 1.525 -4.575 7.625
Se 1.525 -4.575 10.675
Pb 1.525 -4.575 13.725
Se 1.525 -4.575 16.775
Pb 1.525 -4.575 19.825
Se 1.525 -4.575 22.875
Se 1.525 -1.525 -22.875
Pb 1.525 -1.525 -19.825
Se 1.525 -1.525 -16.775
Pb 1.525 -1.525 -13.725
Se 1.525 -1.525 -10.675
Pb 1.525 -1.525 -7.625
Se 1.525 -1.525 -4.575
Pb 1.525 -1.525 -1.525
Se 1.525 -1.525 1.525
Pb 1.525 -1.525 4.575
Se 1.525 -1.525 7.625
Pb 1.525 -1.525 10.675
Se 1.525 -1.525 13.725
Pb 1.525 -1.525 16.775
Se 1.525 -1.525 19.825
Pb 1.525 -1.525 22.875
Pb 1.525 1.525 -22.875
Se 1.525 1.525 -19.825
Pb 1.525 1.525 -16.775
Se 1.525 1.525 -13.725
Pb 1.525 1.525 -10.675
Se 1.525 1.525 -7.625
Pb 1.525 1.525 -4.575
Se 1.525 1.525 -1.525
Pb 1.525 1.525 1.525
Se 1.525 1.525 4.575
Pb 1.525 1.525 7.625
Se 1.525 1.525 10.675
Pb 1.525 1.525 13.725
Se 1.525 1.525 16.775
Pb 1.525 1.525 19.825
Se 1.525 1.525 22.875
Se 1.525 4.575 -22.875
Pb 1.525 4.575 -19.825
Se 1.525 4.575 -16.775
Pb 1.525 4.575 -13.725
Se 1.525 4.575 -10.675
Pb 1.525 4.575 -7.625
Se 1.525 4.575 -4.575
Pb 1.525 4.575 -1.525
Se 1.525 4.575 1.525
Pb 1.525 4.575 4.575
Se 1.525 4.575 7.625
Pb 1.525 4.575 10.675
Se 1.525 4.575 13.725
Pb 1.525 4.575 16.775
Se 1.525 4.575 19.825
Pb 1.525 4.575 22.875
Pb 1.525 7.625 -22.875
Se 1.525 7.625 -19.825
Pb 1.525 7.625 -16.775
Se 1.525 7.625 -13.725
Pb 1.525 7.625 -10.675
Se 1.525 7.625 -7.625
Pb 1.525 7.625 -4.575
Se 1.525 7.625 -1.525
Pb 1.525 7.625 1.525
Se 1.525 7.625 4.575
Pb 1.525 7.625 7.625
Se 1.525 7.625 10.675
Pb 1.525 7.625 13.725
Se 1.525 7.625 16.775
Pb 1.525 7.625 19.825
Se 1.525 7.625 22.875
Se 1.525 10.675 -22.875
Pb 1.525 10.675 -19.825
Se 1.525 10.675 -16.775
Pb 1.525 10.675 -13.725
Se 1.525 10.675 -10.675
Pb 1.525 10.675 -7.625
Se 1.525 10.675 -4.575
Pb 1.525 10.675 -1.525
Se 1.525 10.675 1.525
Pb 1.525 10.675 4.575
Se 1.525 10.675 7.625
Pb 1.525 10.675 10.675
Se 1.525 10.675 13.725
Pb 1.525 10.675 16.775
Se 1.525 10.675 19.825
Pb 1.525 10.675 22.875
Pb 1.525 13.725 -22.875
Se 1.525 13.725 -19.825
Pb 1.525 13.725 -16.775
Se 1.525 13.725 -13.725
Pb 1.525 13.725 -10.675
Se 1.525 13.725 -7.625
Pb 1.525 13.725 -4.575
Se 1.525 13.725 -1.525
Pb 1.525 13.725 1.525
Se 1.525 13.725 4.575
Pb 1.525 13.725 7.625
Se 1.525 13.725 10.675
Pb 1.525 13.725 13.725
Se 1.525 13.725 16.775
Pb 1.525 13.725 19.825
Se 1.525 13.725 22.875
Se 1.525 16.775 -22.875
Pb 1.525 16.775 -19.825
Se 1.525 16.775 -16.775
Pb 1.525 16.775 -13.725
Se 1.525 16.775 -10.675
Pb 1.525 16.775 -7.625
Se 1.525 16.775 -4.575
Pb 1.525 16.775 -1.525
Se 1.525 16.775 1.525
Pb 1.525 16.775 4.575
Se 1.525 16.775 7.625
Pb 1.525 16.775 10.675
Se 1.525 16.775 13.725
Pb 1.525 16.775 16.775
Se 1.525 16.775 19.825
Pb 1.525 16.775 22.875
Pb 1.525 19.825 -22.875
Se 1.525 19.825 -19.825
Pb 1.525 19.825 -16.775
Se 1.525 19.825 -13.725
Pb 1.525 19.825 -10.675
Se 1.525 19.825 -7.625
Pb 1.525 19.825 -4.575
Se 1.525 19.825 -1.525
Pb 1.525 19.825 1.525
Se 1.525 19.825 4.575
Pb 1.525 19.825 7.625
Se 1.525 19.825 10.675
Pb 1.525 19.825 13.725
Se 1.525 19.825 16.775
Pb 1.525 19.825 19.825
Se 1.525 19.825 22.875
Se 1.525 22.875 -22.875
Pb 1.525 22.875 -19.825
Se 1.525 22.875 -16.775
Pb 1.525 22.875 -13.725
Se 1.525 22.875 -10.675
Pb 1.525 22.875 -7.625
Se 1.525 22.875 -4.575
Pb 1.525 22.875 -1.525
Se 1.525 22.875 1.525
Pb 1.525 22.875 4.575
Se 1.525 22.875 7.625
Pb 1.525 22.875 10.675
Se 1.525 22.875 13.725
Pb 1.525 22.875 16.775
Se 1.525 22.875 19.825
Pb 1.525 22.875 22.875
Se 4.575 -22.875 -22.875
Pb 4.575 -22.875 -19.825
Se 4.575 -22.875 -16.775
Pb 4.575 -22.875 -13.725
Se 4.575 -22.875 -10.675
Pb 4.575 -22.875 -7.625
Se 4.575 -22.875 -4.575
Pb 4.575 -22.875 -1.525
Se 4.575 -22.875 1.525
Pb 4.575 -22.875 4.575
Se 4.575 -22.875 7.625
Pb 4.575 -22.875 10.675
Se 4.575 -22.875 13.725
Pb 4.575 -22.875 16.775
Se 4.575 -22.875 19.825
Pb 4.575 -22.875 22.875
Pb 4.575 -19.825 -22.875
Se 4.575 -19.825 -19.825
Pb 4.575 -19.825 -16.775
Se 4.575 -19.825 -13.725
Pb 4.575 -19.825 -10.675
Se 4.575 -19.825 -7.625
Pb 4.575 -19.825 -4.575
Se 4.575 -19.825 -1.525
Pb 4.575 -19.825 1.525
Se 4.575 -19.825 4.575
Pb 4.575 -19.825 7.625
Se 4.575 -19.825 10.675
Pb 4.575 -19.825 13.725
Se 4.575 -19.825 16.775
Pb 4.575 -19.825 19.825
Se 4.575 -19.825 22.875
Se 4.575 -16.775 -22.875
Pb 4.575 -16.775 -19.825
Se 4.575 -16.775 -16.775
Pb 4.575 -16.775 -13.725
Se 4.575 -16.775 -10.675
Pb 4.575 -16.775 -7.625
Se 4.575 -16.775 -4.575
Pb 4.575 -16.775 -1.525
Se 4.575 -16.775 1.525
Pb 4.575 -16.775 4.575
Se 4.575 -16.775 7.625
Pb 4.575 -16.775 10.675
Se 4.575 -16.775 13.725
Pb 4.575 -16.775 16.775
Se 4.575 -16.775 19.825
Pb 4.575 -16.775 22.875
Pb 4.575 -13.725 -22.875
Se 4.575 -13.725 -19.825
Pb 4.575 -13.725 -16.775
Se 4.575 -13.725 -13.725
Pb 4.575 -13.725 -10.675
Se 4.575 -13.725 -7.625
Pb 4.575 -13.725 -4.575
Se 4.575 -13.725 -1.525
Pb 4.575 -13.725 1.525
Se 4.575 -13.725 4.575
Pb 4.575 -13.725 7.625
Se 4.575 -13.725 10.675
Pb 4.575 -13.725 13.725
Se 4.575 -13.725 16.775
Pb 4.575 -13.725 19.825
Se 4.575 -13.725 22.875
Se 4.575 -10.675 -22.875
Pb 4.575 -10.675 -19.825
Se 4.575 -10.675 -16.775
Pb 4.575 -10.675 -13.725
Se 4.575 -10.675 -10.675
Pb 4.575 -10.675 -7.625
Se 4.575 -10.675 -4.575
Pb 4.575 -10.675 -1.525
Se 4.575 -10.675 1.525
Pb 4.575 -10.675 4.575
Se 4.575 -10.675 7.625
Pb 4.575 -10.675 10.675
Se 4.575 -10.675 13.725
Pb 4.575 -10.675 16.775
Se 4.575 -10.675 19.825
Pb 4.575 -10.675 22.875
Pb 4.575 -7.625 -22.875
Se 4.575 -7.625 -19.825
Pb 4.575 -7.625 -16.775
Se 4.575 -7.625 -13.725
Pb 4.575 -7.625 -10.675
Se 4.575 -7.625 -7.625
Pb 4.575 -7.625 -4.575
Se 4.575 -7.625 -1.525
Pb 4.575 -7.625 1.525
Se 4.575 -7.625 4.575
Pb 4.575 -7.625 7.625
Se 4.575 -7.625 10.675
Pb 4.575 -7.625 13.725
Se 4.575 -7.625 16.775
Pb 4.575 -7.625 19.825
Se 4.575 -7.625 22.875
Se 4.575 -4.575 -22.875
Pb 4.575 -4.575 -19.825
Se 4.575 -4.575 -16.775
Pb 4.575 -4.575 -13.725
Se 4.575 -4.575 -10.675
Pb 4.575 -4.575 -7.625
Se 4.575 -4.575 -4.575
Pb 4.575 -4.575 -1.525
Se 4.575 -4.575 1.525
Pb 4.575 -4.575 4.575
Se 4.575 -4.575 7.625
Pb 4.575 -4.575 10.675
Se 4.575 -4.575 13.725
Pb 4.575 -4.575 16.775
Se 4.575 -4.575 19.825
Pb 4.575 -4.575 22.875
Pb 4.575 -1.525 -22.875
Se 4.575 -1.525 -19.825
Pb 4.575 -1.525 -16.775
Se 4.575 -1.525 -13.725
Pb 4.575 -1.525 -10.675
Se 4.575 -1.525 -7.625
Pb 4.575 -1.525 -4.575
Se 4.575 -1.525 -1.525
Pb 4.575 -1.525 1.525
Se 4.575 -1.525 4.575
Pb 4.575 -1.525 7.625
Se 4.575 -1.525 10.675
Pb 4.575 -1.525 13.725
Se 4.575 -1.525 16.775
Pb 4.575 -1.525 19.825
Se 4.575 -1.525 22.875
Se 4.575 1.525 -22.875
Pb 4.575 1.525 -19.825
Se 4.575 1.525 -16.775
Pb 4.575 1.525 -13.725
Se 4.575 1.525 -10.675
Pb 4.575 1.525 -7.625
Se 4.575 1.525 -4.575
Pb 4.575 1.525 -1.525
Se 4.575 1.525 1.525
Pb 4.575 1.525 4.575
Se 4.575 1.525 7.625
Pb 4.575 1.525 10.675
Se 4.575 1.525 13.725
Pb 4.575 1.525 16.775
Se 4.575 1.525 19.825
Pb 4.575 1.525 22.875
Pb 4.575 4.575 -22.875
Se 4.575 4.575 -19.825
Pb 4.575 4.575 -16.775
Se 4.575 4.575 -13.725
Pb 4.575 4.575 -10.675
Se 4.575 4.575 -7.625
Pb 4.575 4.575 -4.575
Se 4.575 4.575 -1.525
Pb 4.575 4.575 1.525
Se 4.575 4.575 4.575
Pb 4.575 4.575 7.625
Se 4.575 4.575 10.675
Pb 4.575 4.575 13.725
Se 4.575 4.575 16.775
Pb 4.575 4.575 19.825
Se 4.575 4.575 22.875
Se 4.575 7.625 -22.875
Pb 4.575 7.625 -19.825
Se 4.575 7.625 -16.775
Pb 4.575 7.625 -13.725
Se 4.575 7.625 -10.675
Pb 4.575 7.625 -7.625
Se 4.575 7.625 -4.575
Pb 4.575 7.625 -1.525
Se 4.575 7.625 1.525
Pb 4.575 7.625 4.575
Se 4.575 7.625 7.625
Pb 4.575 7.625 10.675
Se 4.575 7.625 13.725
Pb 4.575 7.625 16.775
Se 4.575 7.625 19.825
Pb 4.575 7.625 22.875
Pb 4.575 10.675 -22.875
Se 4.575 10.675 -19.825
Pb 4.575 10.675 -16.775
Se 4.575 10.675 -13.725
Pb 4.575 10.675 -10.675
Se 4.575 10.675 -7.625
Pb 4.575 10.675 -4.575
Se 4.575 10.675 -1.525
Pb 4.575 10.675 1.525
Se 4.575 10.675 4.575
Pb 4.575 10.675 7.625
Se 4.575 10.675 10.675
Pb 4.575 10.675 13.725
Se 4.575 10.675 16.775
Pb 4.575 10.675 19.825
Se 4.575 10.675 22.875
Se 4.575 13.725 -22.875
Pb 4.575 13.725 -19.825
Se 4.575 13.725 -16.775
Pb 4.575 13.725 -13.725
Se 4.575 13.725 -10.675
Pb 4.575 13.725 -7.625
Se 4.575 13.725 -4.575
Pb 4.575 13.725 -1.525
Se 4.575 13.725 1.525
Pb 4.575 13.725 4.575
Se 4.575 13.725 7.625
Pb 4.575 13.725 10.675
Se 4.575 13.725 13.725
Pb 4.575 13.725 16.775
Se 4.575 13.725 19.825
Pb 4.575 13.725 22.875
Pb 4.575 16.775 -22.875
Se 4.575 16.775 -19.825
Pb 4.575 16.775 -16.775
Se 4.575 16.775 -13.725
Pb 4.575 16.775 -10.675
Se 4.575 16.775 -7.625
Pb 4.575 16.775 -4.575
Se 4.575 16.775 -1.525
Pb 4.575 16.775 1.525
Se 4.575 16.775 4.575
Pb 4.575 16.775 7.625
Se 4.575 16.775 10.675
Pb 4.575 16.775 13.725
Se 4.575 16.775 16.775
Pb 4.575 16.775 19.825
Se 4.575 16.775 22.875
Se 4.575 19.825 -22.875
Pb 4.575 19.825 -19.825
Se 4.575 19.825 -16.775
Pb 4.575 19.825 -13.725
Se 4.575 19.825 -10.675
Pb 4.575 19.825 -7.625
Se 4.575 19.825 -4.575
Pb 4.575 19.825 -1.525
Se 4.575 19.825 1.525
Pb 4.575 19.825 4.575
Se 4.575 19.825 7.625
Pb 4.575 19.825 10.675
Se 4.575 19.825 13.725
Pb 4.575 19.825 16.775
Se 4.575 19.825 19.825
Pb 4.575 19.825 22.875
Pb 4.575 22.875 -22.875
Se 4.575 22.875 -19.825
Pb 4.575 22.875 -16.775
Se 4.575 22.875 -13.725
Pb 4.575 22.875 -10.675
Se 4.575 22.875 -7.625
Pb 4.575 22.875 -4.575
Se 4.575 22.875 -1.525
Pb 4.575 22.875 1.525
Se 4.575 22.875 4.575
Pb 4.575 22.875 7.625
Se 4.575 22.875 10.675
Pb 4.575 22.875 13.725
Se 4.575 22.875 16.775
Pb 4.575 22.875 19.825
Se 4.575 22.875 22.875
Pb 7.625 -22.875 -22.875
Se 7.625 -22.875 -19.825
Pb 7.625 -22.875 -16.775
Se 7.625 -22.875 -13.725
Pb 7.625 -22.875 -10.675
Se 7.625 -22.875 -7.625
Pb 7.625 -22.875 -4.575
Se 7.625 -22.875 -1.525
Pb 7.625 -22.875 1.525
Se 7.625 -22.875 4.575
Pb 7.625 -22.875 7.625
Se 7.625 -22.875 10.675
Pb 7.625 -22.875 13.725
Se 7.625 -22.875 16.775
Pb 7.625 -22.875 19.825
Se 7.625 -22.875 22.875
Se 7.625 -19.825 -22.875
Pb 7.625 -19.825 -19.825
Se 7.625 -19.825 -16.775
Pb 7.625 -19.825 -13.725
Se 7.625 -19.825 -10.675
Pb 7.625 -19.825 -7.625
Se 7.625 -19.825 -4.575
Pb 7.625 -19.825 -1.525
Se 7.625 -19.825 1.525
Pb 7.625 -19.825 4.575
Se 7.625 -19.825 7.625
Pb 7.625 -19.825 10.675
Se 7.625 -19.825 13.725
Pb 7.625 -19.825 16.775
Se 7.625 -19.825 19.825
Pb 7.625 -19.825 22.875
Pb 7.625 -16.775 -22.875
Se 7.625 -16.775 -19.825
Pb 7.625 -16.775 -16.775
Se 7.625 -16.775 -13.725
Pb 7.625 -16.775 -10.675
Se 7.625 -16.775 -7.625
Pb 7.625 -16.775 -4.575
Se 7.625 -16.775 -1.525
Pb 7.625 -16.775 1.525
Se 7.625 -16.775 4.575
Pb 7.625 -16.775 7.625
Se 7.625 -16.775 10.675
Pb 7.625 -16.775 13.725
Se 7.625 -16.775 16.775
Pb 7.625 -16.775 19.825
Se 7.625 -16.775 22.875
Se 7.625 -13.725 -22.875
Pb 7.625 -13.725 -19.825
Se 7.625 -13.725 -16.775
Pb 7.625 -13.725 -13.725
Se 7.625 -13.725 -10.675
Pb 7.625 -13.725 -7.625
Se 7.625 -13.725 -4.575
Pb 7.625 -13.725 -1.525
Se 7.625 -13.725 1.525
Pb 7.625 -13.725 4.575
Se 7.625 -13.725 7.625
Pb 7.625 -13.725 10.675
Se 7.625 -13.725 13.725
Pb 7.625 -13.725 16.775
Se 7.625 -13.725 19.825
Pb 7.625 -13.725 22.875
Pb 7.625 -10.675 -22.875
Se 7.625 -10.675 -19.825
Pb 7.625 -10.675 -16.775
Se 7.625 -10.675 -13.725
Pb 7.625 -10.675 -10.675
Se 7.625 -10.675 -7.625
Pb 7.625 -10.675 -4.575
Se 7.625 -10.675 -1.525
Pb 7.625 -10.675 1.525
Se 7.625 -10.675 4.575
Pb 7.625 -10.675 7.625
Se 7.625 -10.675 10.675
Pb 7.625 -10.675 13.725
Se 7.625 -10.675 16.775
Pb 7.625 -10.675 19.825
Se 7.625 -10.675 22.875
Se 7.625 -7.625 -22.875
Pb 7.625 -7.625 -19.825
Se 7.625 -7.625 -16.775
Pb 7.625 -7.625 -13.725
Se 7.625 -7.625 -10.675
Pb 7.625 -7.625 -7.625
Se 7.625 -7.625 -4.575
Pb 7.625 -7.625 -1.525
Se 7.625 -7.625 1.525
Pb 7.625 -7.625 4.575
Se 7.625 -7.625 7.625
Pb 7.625 -7.625 10.675
Se 7.625 -7.625 13.725
Pb 7.625 -7.625 16.775
Se 7.625 -7.625 19.825
Pb 7.625 -7.625 22.875
Pb 7.625 -4.575 -22.875
Se 7.625 -4.575 -19.825
Pb 7.625 -4.575 -16.775
Se 7.625 -4.575 -13.725
Pb 7.625 -4.575 -10.675
Se 7.625 -4.575 -7.625
Pb 7.625 -4.575 -4.575
Se 7.625 -4.575 -1.525
Pb 7.625 -4.575 1.525
Se 7.625 -4.575 4.575
Pb 7.625 -4.575 7.625
Se 7.625 -4.575 10.675
Pb 7.625 -4.575 13.725
Se 7.625 -4.575 16.775
Pb 7.625 -4.575 19.825
Se 7.625 -4.575 22.875
Se 7.625 -1.525 -22.875
Pb 7.625 -1.525 -19.825
Se 7.625 -1.525 -16.775
Pb 7.625 -1.525 -13.725
Se 7.625 -1.525 -10.675
Pb 7.625 -1.525 -7.625
Se 7.625 -1.525 -4.575
Pb 7.625 -1.525 -1.525
Se 7.625 -1.525 1.525
Pb 7.625 -1.525 4.575
Se 7.625 -1.525 7.625
Pb 7.625 -1.525 10.675
Se 7.625 -1.525 13.725
Pb 7.625 -1.525 16.775
Se 7.625 -1.525 19.825
Pb 7.625 -1.525 22.875
Pb 7.625 1.525 -22.875
Se 7.625 1.525 -19.825
Pb 7.625 1.525 -16.775
Se 7.625 1.525 -13.725
Pb 7.625 1.525 -10.675
Se 7.625 1.525 -7.625
Pb 7.625 1.525 -4.575
Se 7.625 1.525 -1.525
Pb 7.625 1.525 1.525
Se 7.625 1.525 4.575
Pb 7.625 1.525 7.625
Se 7.625 1.525 10.675
Pb 7.625 1.525 13.725
Se 7.625 1.525 16.775
Pb 7.625 1.525 19.825
Se 7.625 1.525 22.875
Se 7.625 4.575 -22.875
Pb 7.625 4.575 -19.825
Se 7.625 4.575 -16.775
Pb 7.625 4.575 -13.725
Se 7.625 4.575 -10.675
Pb 7.625 4.575 -7.625
Se 7.625 4.575 -4.575
Pb 7.625 4.575 -1.525
Se 7.625 4.575 1.525
Pb 7.625 4.575 4.575
Se 7.625 4.575 7.625
Pb 7.625 4.575 10.675
Se 7.625 4.575 13.725
Pb 7.625 4.575 16.775
Se 7.625 4.575 19.825
Pb 7.625 4.575 22.875
Pb 7.625 7.625 -22.875
Se 7.625 7.625 -19.825
Pb 7.625 7.625 -16.775
Se 7.625 7.625 -13.725
Pb 7.625 7.625 -10.675
Se 7.625 7.625 -7.625
Pb 7.625 7.625 -4.575
Se 7.625 7.625 -1.525
Pb 7.625 7.625 1.525
Se 7.625 7.625 4.575
Pb 7.625 7.625 7.625
Se 7.625 7.625 10.675
Pb 7.625 7.625 13.725
Se 7.625 7.625 16.775
Pb 7.625 7.625 19.825
Se 7.625 7.625 22.875
Se 7.625 10.675 -22.875
Pb 7.625 10.675 -19.825
Se 7.625 10.675 -16.775
Pb 7.625 10.675 -13.725
Se 7.625 10.675 -10.675
Pb 7.625 10.675 -7.625
Se 7.625 10.675 -4.575
Pb 7.625 10.675 -1.525
Se 7.625 10.675 1.525
Pb 7.625 10.675 4.575
Se 7.625 10.675 7.625
Pb 7.625 10.675 10.675
Se 7.625 10.675 13.725
Pb 7.625 10.675 16.775
Se 7.625 10.675 19.825
Pb 7.625 10.675 22.875
Pb 7.625 13.725 -22.875
Se 7.625 13.725 -19.825
Pb 7.625 13.725 -16.775
Se 7.625 13.725 -13.725
Pb 7.625 13.725 -10.675
Se 7.625 13.725 -7.625
Pb 7.625 13.725 -4.575
Se 7.625 13.725 -1.525
Pb 7.625 13.725 1.525
Se 7.625 13.725 4.575
Pb 7.625 13.725 7.625
Se 7.625 13.725 10.675
Pb 7.625 13.725 13.725
Se 7.625 13.725 16.775
Pb 7.625 13.725 19.825
Se 7.625 13.725 22.875
Se 7.625 16.775 -22.875
Pb 7.625 16.775 -19.825
Se 7.625 16.775 -16.775
Pb 7.625 16.775 -13.725
Se 7.625 16.775 -10.675
Pb 7.625 16.775 -7.625
Se 7.625 16.775 -4.575
Pb 7.625 16.775 -1.525
Se 7.625 16.775 1.525
Pb 7.625 16.775 4.575
Se 7.625 16.775 7.625
Pb 7.625 16.775 10.675
Se 7.625 16.775 13.725
Pb 7.625 16.775 16.775
Se 7.625 16.775 19.825
Pb 7.625 16.775 22.875
Pb 7.625 19.825 -22.875
Se 7.625 19.825 -19.825
Pb 7.625 19.825 -16.775
Se 7.625 19.825 -13.725
Pb 7.625 19.825 -10.675
Se 7.625 19.825 -7.625
Pb 7.625 19.825 -4.575
Se 7.625 19.825 -1.525
Pb 7.625 19.825 1.525
Se 7.625 19.825 4.575
Pb 7.625 19.825 7.625
Se 7.625 19.825 10.675
Pb 7.625 19.825 13.725
Se 7.625 19.825 16.775
Pb 7.625 19.825 19.825
Se 7.625 19.825 22.875
Se 7.625 22.875 -22.875
Pb 7.625 22.875 -19.825
Se 7.625 22.875 -16.775
Pb 7.625 22.875 -13.725
Se 7.625 22.875 -10.675
Pb 7.625 22.875 -7.625
Se 7.625 22.875 -4.575
Pb 7.625 22.875 -1.525
Se 7.625 22.875 1.525
Pb 7.625 22.875 4.575
Se 7.625 22.875 7.625
Pb 7.625 22.875 10.675
Se 7.625 22.875 13.725
Pb 7.625 22.875 16.775
Se 7.625 22.875 19.825
Pb 7.625 22.875 22.875
Se 10.675 -22.875 -22.875
Pb 10.675 -22.875 -19.825
Se 10.675 -22.875 -16.775
Pb 10.675 -22.875 -13.725
Se 10.675 -22.875 -10.675
Pb 10.675 -22.875 -7.625
Se 10.675 -22.875 -4.575
Pb 10.675 -22.875 -1.525
Se 10.675 -22.875 1.525
Pb 10.675 -22.875 4.575
Se 10.675 -22.875 7.625
Pb 10.675 -22.875 10.675
Se 10.675 -22.875 13.725
Pb 10.675 -22.875 16.775
Se 10.675 -22.875 19.825
Pb 10.675 -22.875 22.875
Pb 10.675 -19.825 -22.875
Se 10.675 -19.825 -19.825
Pb 10.675 -19.825 -16.775
Se 10.675 -19.825 -13.725
Pb 10.675 -19.825 -10.675
Se 10.675 -19.825 -7.625
Pb 10.675 -19.825 -4.575
Se 10.675 -19.825 -1.525
Pb 10.675 -19.825 1.525
Se 10.675 -19.825 4.575
Pb 10.675 -19.825 7.625
Se 10.675 -19.825 10.675
Pb 10.675 -19.825 13.725
Se 10.675 -19.825 16.775
Pb 10.675 -19.825 19.825
Se 10.675 -19.825 22.875
Se 10.675 -16.775 -22.875
Pb 10.675 -16.775 -19.825
Se 10.675 -16.775 -16.775
Pb 10.675 -16.775 -13.725
Se 10.675 -16.775 -10.675
Pb 10.675 -16.775 -7.625
Se 10.675 -16.775 -4.575
Pb 10.675 -16.775 -1.525
Se 10.675 -16.775 1.525
Pb 10.675 -16.775 4.575
Se 10.675 -16.775 7.625
Pb 10.675 -16.775 10.675
Se 10.675 -16.775 13.725
Pb 10.675 -16.775 16.775
Se 10.675 -16.775 19.825
Pb 10.675 -16.775 22.875
Pb 10.675 -13.725 -22.875
Se 10.675 -13.725 -19.825
Pb 10.675 -13.725 -16.775
Se 10.675 -13.725 -13.725
Pb 10.675 -13.725 -10.675
Se 10.675 -13.725 -7.625
Pb 10.675 -13.725 -4.575
Se 10.675 -13.725 -1.525
Pb 10.675 -13.725 1.525
Se 10.675 -13.725 4.575
Pb 10.675 -13.725 7.625
Se 10.675 -13.725 10.675
Pb 10.675 -13.725 13.725
Se 10.675 -13.725 16.775
Pb 10.675 -13.725 19.825
Se 10.675 -13.725 22.875
Se 10.675 -10.675 -22.875
Pb 10.675 -10.675 -19.825
Se 10.675 -10.675 -16.775
Pb 10.675 -10.675 -13.725
Se 10.675 -10.675 -10.675
Pb 10.675 -10.675 -7.625
Se 10.675 -10.675 -4.575
Pb 10.675 -10.675 -1.525
Se 10.675 -10.675 1.525
Pb 10.675 -10.675 4.575
Se 10.675 -10.675 7.625
Pb 10.675 -10.675 10.675
Se 10.675 -10.675 13.725
Pb 10.675 -10.675 16.775
Se 10.675 -10.675 19.825
Pb 10.675 -10.675 22.875
Pb 10.675 -7.625 -22.875
Se 10.675 -7.625 -19.825
Pb 10.675 -7.625 -16.775
Se 10.675 -7.625 -13.725
Pb 10.675 -7.625 -10.675
Se 10.675 -7.625 -7.625
Pb 10.675 -7.625 -4.575
Se 10.675 -7.625 -1.525
Pb 10.675 -7.625 1.525
Se 10.675 -7.625 4.575
Pb 10.675 -7.625 7.625
Se 10.675 -7.625 10.675
Pb 10.675 -7.625 13.725
Se 10.675 -7.625 16.775
Pb 10.675 -7.625 19.825
Se 10.675 -7.625 22.875
Se 10.675 -4.575 -22.875
Pb 10.675 -4.575 -19.825
Se 10.675 -4.575 -16.775
Pb 10.675 -4.575 -13.725
Se 10.675 -4.575 -10.675
Pb 10.675 -4.575 -7.625
Se 10.675 -4.575 -4.575
Pb 10.675 -4.575 -1.525
Se 10.675 -4.575 1.525
Pb 10.675 -4.575 4.575
Se 10.675 -4.575 7.625
Pb 10.675 -4.575 10.675
Se 10.675 -4.575 13.725
Pb 10.675 -4.575 16.775
Se 10.675 -4.575 19.825
Pb 10.675 -4.575 22.875
Pb 10.675 -1.525 -22.875
Se 10.675 -1.525 -19.825
Pb 10.675 -1.525 -16.775
Se 10.675 -1.525 -13.725
Pb 10.675 -1.525 -10.675
Se 10.675 -1.525 -7.625
Pb 10.675 -1.525 -4.575
Se 10.675 -1.525 -1.525
Pb 10.675 -1.525 1.525
Se 10.675 -1.525 4.575
Pb 10.675 -1.525 7.625
Se 10.675 -1.525 10.675
Pb 10.675 -1.525 13.725
Se 10.675 -1.525 16.775
Pb 10.675 -1.525 19.825
Se 10.675 -1.525 22.875
Se 10.675 1.525 -22.875
Pb 10.675 1.525 -19.825
Se 10.675 1.525 -16.775
Pb 10.675 1.525 -13.725
Se 10.675 1.525 -10.675
Pb 10.675 1.525 -7.625
Se 10.675 1.525 -4.575
Pb 10.675 1.525 -1.525
Se 10.675 1.525 1.525
Pb 10.675 1.525 4.575
Se 10.675 1.525 7.625
Pb 10.675 1.525 10.675
Se 10.675 1.525 13.725
Pb 10.675 1.525 16.775
Se 10.675 1.525 19.825
Pb 10.675 1.525 22.875
Pb 10.675 4.575 -22.875
Se 10.675 4.575 -19.825
Pb 10.675 4.575 -16.775
Se 10.675 4.575 -13.725
Pb 10.675 4.575 -10.675
Se 10.675 4.575 -7.625
Pb 10.675 4.575 -4.575
Se 10.675 4.575 -1.525
Pb 10.675 4.575 1.525
Se 10.675 4.575 4.575
Pb 10.675 4.575 7.625
Se 10.675 4.575 10.675
Pb 10.675 4.575 13.725
Se 10.675 4.575 16.775
Pb 10.675 4.575 19.825
Se 10.675 4.575 22.875
Se 10.675 7.625 -22.875
Pb 10.675 7.625 -19.825
Se 10.675 7.625 -16.775
Pb 10.675 7.625 -13.725
Se 10.675 7.625 -10.675
Pb 10.675 7.625 -7.625
Se 10.675 7.625 -4.575
Pb 10.675 7.625 -1.525
Se 10.675 7.625 1.525
Pb 10.675 7.625 4.575
Se 10.675 7.625 7.625
Pb 10.675 7.625 10.675
Se 10.675 7.625 13.725
Pb 10.675 7.625 16.775
Se 10.675 7.625 19.825
Pb 10.675 7.625 22.875
Pb 10.675 10.675 -22.875
Se 10.675 10.675 -19.825
Pb 10.675 10.675 -16.775
Se 10.675 10.675 -13.725
Pb 10.675 10.675 -10.675
Se 10.675 10.675 -7.625
Pb 10.675 10.675 -4.575
Se 10.675 10.675 -1.525
Pb 10.675 10.675 1.525
Se 10.675 10.675 4.575
Pb 10.675 10.675 7.625
Se 10.675 10.675 10.675
Pb 10.675 10.675 13.725
Se 10.675 10.675 16.775
Pb 10.675 10.675 19.825
Se 10.675 10.675 22.875
Se 10.675 13.725 -22.875
Pb 10.675 13.725 -19.825
Se 10.675 13.725 -16.775
Pb 10.675 13.725 -13.725
Se 10.675 13.725 -10.675
Pb 10.675 13.725 -7.625
Se 10.675 13.725 -4.575
Pb 10.675 13.725 -1.525
Se 10.675 13.725 1.525
Pb 10.675 13.725 4.575
Se 10.675 13.725 7.625
Pb 10.675 13.725 10.675
Se 10.675 13.725 13.725
Pb 10.675 13.725 16.775
Se 10.675 13.725 19.825
Pb 10.675 13.725 22.875
Pb 10.675 16.775 -22.875
Se 10.675 16.775 -19.825
Pb 10.675 16.775 -16.775
Se 10.675 16.775 -13.725
Pb 10.675 16.775 -10.675
Se 10.675 16.775 -7.625
Pb 10.675 16.775 -4.575
Se 10.675 16.775 -1.525
Pb 10.675 16.775 1.525
Se 10.675 16.775 4.575
Pb 10.675 16.775 7.625
Se 10.675 16.775 10.675
Pb 10.675 16.775 13.725
Se 10.675 16.775 16.775
Pb 10.675 16.775 19.825
Se 10.675 16.775 22.875
Se 10.675 19.825 -22.875
Pb 10.675 19.825 -19.825
Se 10.675 19.825 -16.775
Pb 10.675 19.825 -13.725
Se 10.675 19.825 -10.675
Pb 10.675 19.825 -7.625
Se 10.675 19.825 -4.575
Pb 10.675 19.825 -1.525
Se 10.675 19.825 1.525
Pb 10.675 19.825 4.575
Se 10.675 19.825 7.625
Pb 10.675 19.825 10.675
Se 10.675 19.825 13.725
Pb 10.675 19.825 16.775
Se 10.675 19.825 19.825
Pb 10.675 19.825 22.875
Pb 10.675 22.875 -22.875
Se 10.675 22.875 -19.825
Pb 10.675 22.875 -16.775
Se 10.675 22.875 -13.725
Pb 10.675 22.875 -10.675
Se 10.675 22.875 -7.625
Pb 10.675 22.875 -4.575
Se 10.675 22.875 -1.525
Pb 10.675 22.875 1.525
Se 10.675 22.875 4.575
Pb 10.675 22.875 7.625
Se 10.675 22.875 10.675
Pb 10.675 22.875 13.725
Se 10.675 22.875 16.775
Pb 10.675 22.875 19.825
Se 10.675 22.875 22.875
Pb 13.725 -22.875 -22.875
Se 13.725 -22.875 -19.825
Pb 13.725 -22.875 -16.775
Se 13.725 -22.875 -13.725
Pb 13.725 -22.875 -10.675
Se 13.725 -22.875 -7.625
Pb 13.725 -22.875 -4.575
Se 13.725 -22.875 -1.525
Pb 13.725 -22.875 1.525
Se 13.725 -22.875 4.575
Pb 13.725 -22.875 7.625
Se 13.725 -22.875 10.675
Pb 13.725 -22.875 13.725
Se 13.725 -22.875 16.775
Pb 13.725 -22.875 19.825
Se 13.725 -22.875 22.875
Se 13.725 -19.825 -22.875
Pb 13.725 -19.825 -19.825
Se 13.725 -19.825 -16.775
Pb 13.725 -19.825 -13.725
Se 13.725 -19.825 -10.675
Pb 13.725 -19.825 -7.625
Se 13.725 -19.825 -4.575
Pb 13.725 -19.825 -1.525
Se 13.725 -19.825 1.525
Pb 13.725 -19.825 4.575
Se 13.725 -19.825 7.625
Pb 13.725 -19.825 10.675
Se 13.725 -19.825 13.725
Pb 13.725 -19.825 16.775
Se 13.725 -19.825 19.825
Pb 13.725 -19.825 22.875
Pb 13.725 -16.775 -22.875
Se 13.725 -16.775 -19.825
Pb 13.725 -16.775 -16.775
Se 13.725 -16.775 -13.725
Pb 13.725 -16.775 -10.675
Se 13.725 -16.775 -7.625
Pb 13.725 -16.775 -4.575
Se 13.725 -16.775 -1.525
Pb 13.725 -16.775 1.525
Se 13.725 -16.775 4.575
Pb 13.725 -16.775 7.625
Se 13.725 -16.775 10.675
Pb 13.725 -16.775 13.725
Se 13.725 -16.775 16.775
Pb 13.725 -16.775 19.825
Se 13.725 -16.775 22.875
Se 13.725 -13.725 -22.875
Pb 13.725 -13.725 -19.825
Se 13.725 -13.725 -16.775
Pb 13.725 -13.725 -13.725
Se 13.725 -13.725 -10.675
Pb 13.725 -13.725 -7.625
Se 13.725 -13.725 -4.575
Pb 13.725 -13.725 -1.525
Se 13.725 -13.725 1.525
Pb 13.725 -13.725 4.575
Se 13.725 -13.725 7.625
Pb 13.725 -13.725 10.675
Se 13.725 -13.725 13.725
Pb 13.725 -13.725 16.775
Se 13.725 -13.725 19.825
Pb 13.725 -13.725 22.875
Pb 13.725 -10.675 -22.875
Se 13.725 -10.675 -19.825
Pb 13.725 -10.675 -16.775
Se 13.725 -10.675 -13.725
Pb 13.725 -10.675 -10.675
Se 13.725 -10.675 -7.625
Pb 13.725 -10.675 -4.575
Se 13.725 -10.675 -1.525
Pb 13.725 -10.675 1.525
Se 13.725 -10.675 4.575
Pb 13.725 -10.675 7.625
Se 13.725 -10.675 10.675
Pb 13.725 -10.675 13.725
Se 13.725 -10.675 16.775
Pb 13.725 -10.675 19.825
Se 13.725 -10.675 22.875
Se 13.725 -7.625 -22.875
Pb 13.725 -7.625 -19.825
Se 13.725 -7.625 -16.775
Pb 13.725 -7.625 -13.725
Se 13.725 -7.625 -10.675
Pb 13.725 -7.625 -7.625
Se 13.725 -7.625 -4.575
Pb 13.725 -7.625 -1.525
Se 13.725 -7.625 1.525
Pb 13.725 -7.625 4.575
Se 13.725 -7.625 7.625
Pb 13.725 -7.625 10.675
Se 13.725 -7.625 13.725
Pb 13.725 -7.625 16.775
Se 13.725 -7.625 19.825
Pb 13.725 -7.625 22.875
Pb 13.725 -4.575 -22.875
Se 13.725 -4.575 -19.825
Pb 13.725 -4.575 -16.775
Se 13.725 -4.575 -13.725
Pb 13.725 -4.575 -10.675
Se 13.725 -4.575 -7.625
Pb 13.725 -4.575 -4.575
Se 13.725 -4.575 -1.525
Pb 13.725 -4.575 1.525
Se 13.725 -4.575 4.575
Pb 13.725 -4.575 7.625
Se 13.725 -4.575 10.675
Pb 13.725 -4.575 13.725
Se 13.725 -4.575 16.775
Pb 13.725 -4.575 19.825
Se 13.725 -4.575 22.875
Se 13.725 -1.525 -22.875
Pb 13.725 -1.525 -19.825
Se 13.725 -1.525 -16.775
Pb 13.725 -1.525 -13.725
Se 13.725 -1.525 -10.675
Pb 13.725 -1.525 -7.625
Se 13.725 -1.525 -4.575
Pb 13.725 -1.525 -1.525
Se 13.725 -1.525 1.525
Pb 13.725 -1.525 4.575
Se 13.725 -1.525 7.625
Pb 13.725 -1.525 10.675
Se 13.725 -1.525 13.725
Pb 13.725 -1.525 16.775
Se 13.725 -1.525 19.825
Pb 13.725 -1.525 22.875
Pb 13.725 1.525 -22.875
Se 13.725 1.525 -19.825
Pb 13.725 1.525 -16.775
Se 13.725 1.525 -13.725
Pb 13.725 1.525 -10.675
Se 13.725 1.525 -7.625
Pb 13.725 1.525 -4.575
Se 13.725 1.525 -1.525
Pb 13.725 1.525 1.525
Se 13.725 1.525 4.575
Pb 13.725 1.525 7.625
Se 13.725 1.525 10.675
Pb 13.725 1.525 13.725
Se 13.725 1.525 16.775
Pb 13.725 1.525 19.825
Se 13.725 1.525 22.875
Se 13.725 4.575 -22.875
Pb 13.725 4.575 -19.825
Se 13.725 4.575 -16.775
Pb 13.725 4.575 -13.725
Se 13.725 4.575 -10.675
Pb 13.725 4.575 -7.625
Se 13.725 4.575 -4.575
Pb 13.725 4.575 -1.525
Se 13.725 4.575 1.525
Pb 13.725 4.575 4.575
Se 13.725 4.575 7.625
Pb 13.725 4.575 10.675
Se 13.725 4.575 13.725
Pb 13.725 4.575 16.775
Se 13.725 4.575 19.825
Pb 13.725 4.575 22.875
Pb 13.725 7.625 -22.875
Se 13.725 7.625 -19.825
Pb 13.725 7.625 -16.775
Se 13.725 7.625 -13.725
Pb 13.725 7.625 -10.675
Se 13.725 7.625 -7.625
Pb 13.725 7.625 -4.575
Se 13.725 7.625 -1.525
Pb 13.725 7.625 1.525
Se 13.725 7.625 4.575
Pb 13.725 7.625 7.625
Se 13.725 7.625 10.675
Pb 13.725 7.625 13.725
Se 13.725 7.625 16.775
Pb 13.725 7.625 19.825
Se 13.725 7.625 22.875
Se 13.725 10.675 -22.875
Pb 13.725 10.675 -19.825
Se 13.725 10.675 -16.775
Pb 13.725 10.675 -13.725
Se 13.725 10.675 -10.675
Pb 13.725 10.675 -7.625
Se 13.725 10.675 -4.575
Pb 13.725 10.675 -1.525
Se 13.725 10.675 1.525
Pb 13.725 10.675 4.575
Se 13.725 10.675 7.625
Pb 13.725 10.675 10.675
Se 13.725 10.675 13.725
Pb 13.725 10.675 16.775
Se 13.725 10.675 19.825
Pb 13.725 10.675 22.875
Pb 13.725 13.725 -22.875
Se 13.725 13.725 -19.825
Pb 13.725 13.725 -16.775
Se 13.725 13.725 -13.725
Pb 13.725 13.725 -10.675
Se 13.725 13.725 -7.625
Pb 13.725 13.725 -4.575
Se 13.725 13.725 -1.525
Pb 13.725 13.725 1.525
Se 13.725 13.725 4.575
Pb 13.725 13.725 7.625
Se 13.725 13.725 10.675
Pb 13.725 13.725 13.725
Se 13.725 13.725 16.775
Pb 13.725 13.725 19.825
Se 13.725 13.725 22.875
Se 13.725 16.775 -22.875
Pb 13.725 16.775 -19.825
Se 13.725 16.775 -16.775
Pb 13.725 16.775 -13.725
Se 13.725 16.775 -10.675
Pb 13.725 16.775 -7.625
Se 13.725 16.775 -4.575
Pb 13.725 16.775 -1.525
Se 13.725 16.775 1.525
Pb 13.725 16.775 4.575
Se 13.725 16.775 7.625
Pb 13.725 16.775 10.675
Se 13.725 16.775 13.725
Pb 13.725 16.775 16.775
Se 13.725 16.775 19.825
Pb 13.725 16.775 22.875
Pb 13.725 19.825 -22.875
Se 13.725 19.825 -19.825
Pb 13.725 19.825 -16.775
Se 13.725 19.825 -13.725
Pb 13.725 19.825 -10.675
Se 13.725 19.825 -7.625
Pb 13.725 19.825 -4.575
Se 13.725 19.825 -1.525
Pb 13.725 19.825 1.525
Se 13.725 19.825 4.575
Pb 13.725 19.825 7.625
Se 13.725 19.825 10.675
Pb 13.725 19.825 13.725
Se 13.725 19.825 16.775
Pb 13.725 19.825 19.825
Se 13.725 19.825 22.875
Se 13.725 22.875 -22.875
Pb 13.725 22.875 -19.825
Se 13.725 22.875 -16.775
Pb 13.725 22.875 -13.725
Se 13.725 22.875 -10.675
Pb 13.725 22.875 -7.625
Se 13.725 22.875 -4.575
Pb 13.725 22.875 -1.525
Se 13.725 22.875 1.525
Pb 13.725 22.875 4.575
Se 13.725 22.875 7.625
Pb 13.725 22.875 10.675
Se 13.725 22.875 13.725
Pb 13.725 22.875 16.775
Se 13.725 22.875 19.825
Pb 13.725 22.875 22.875
Se 16.775 -22.875 -22.875
Pb 16.775 -22.875 -19.825
Se 16.775 -22.875 -16.775
Pb 16.775 -22.875 -13.725
Se 16.775 -22.875 -10.675
Pb 16.775 -22.875 -7.625
Se 16.775 -22.875 -4.575
Pb 16.775 -22.875 -1.525
Se 16.775 -22.875 1.525
Pb 16.775 -22.875 4.575
Se 16.775 -22.875 7.625
Pb 16.775 -22.875 10.675
Se 16.775 -22.875 13.725
Pb 16.775 -22.875 16.775
Se 16.775 -22.875 19.825
Pb 16.775 -22.875 22.875
Pb 16.775 -19.825 -22.875
Se 16.775 -19.825 -19.825
Pb 16.775 -19.825 -16.775
Se 16.775 -19.825 -13.725
Pb 16.775 -19.825 -10.675
Se 16.775 -19.825 -7.625
Pb 16.775 -19.825 -4.575
Se 16.775 -19.825 -1.525
Pb 16.775 -19.825 1.525
Se 16.775 -19.825 4.575
Pb 16.775 -19.825 7.625
Se 16.775 -19.825 10.675
Pb 16.775 -19.825 13.725
Se 16.775 -19.825 16.775
Pb 16.775 -19.825 19.825
Se 16.775 -19.825 22.875
Se 16.775 -16.775 -22.875
Pb 16.775 -16.775 -19.825
Se 16.775 -16.775 -16.775
Pb 16.775 -16.775 -13.725
Se 16.775 -16.775 -10.675
Pb 16.775 -16.775 -7.625
Se 16.775 -16.775 -4.575
Pb 16.775 -16.775 -1.525
Se 16.775 -16.775 1.525
Pb 16.775 -16.775 4.575
Se 16.775 -16.775 7.625
Pb 16.775 -16.775 10.675
Se 16.775 -16.775 13.725
Pb 16.775 -16.775 16.775
Se 16.775 -16.775 19.825
Pb 16.775 -16.775 22.875
Pb 16.775 -13.725 -22.875
Se 16.775 -13.725 -19.825
Pb 16.775 -13.725 -16.775
Se 16.775 -13.725 -13.725
Pb 16.775 -13.725 -10.675
Se 16.775 -13.725 -7.625
Pb 16.775 -13.725 -4.575
Se 16.775 -13.725 -1.525
Pb 16.775 -13.725 1.525
Se 16.775 -13.725 4.575
Pb 16.775 -13.725 7.625
Se 16.775 -13.725 10.675
Pb 16.775 -13.725 13.725
Se 16.775 -13.725 16.775
Pb 16.775 -13.725 19.825
Se 16.775 -13.725 22.875
Se 16.775 -10.675 -22.875
Pb 16.775 -10.675 -19.825
Se 16.775 -10.675 -16.775
Pb 16.775 -10.675 -13.725
Se 16.775 -10.675 -10.675
Pb 16.775 -10.675 -7.625
Se 16.775 -10.675 -4.575
Pb 16.775 -10.675 -1.525
Se 16.775 -10.675 1.525
Pb 16.775 -10.675 4.575
Se 16.775 -10.675 7.625
Pb 16.775 -10.675 10.675
Se 16.775 -10.675 13.725
Pb 16.775 -10.675 16.775
Se 16.775 -10.675 19.825
Pb 16.775 -10.675 22.875
Pb 16.775 -7.625 -22.875
Se 16.775 -7.625 -19.825
Pb 16.775 -7.625 -16.775
Se 16.775 -7.625 -13.725
Pb 16.775 -7.625 -10.675
Se 16.775 -7.625 -7.625
Pb 16.775 -7.625 -4.575
Se 16.775 -7.625 -1.525
Pb 16.775 -7.625 1.525
Se 16.775 -7.625 4.575
Pb 16.775 -7.625 7.625
Se 16.775 -7.625 10.675
Pb 16.775 -7.625 13.725
Se 16.775 -7.625 16.775
Pb 16.775 -7.625 19.825
Se 16.775 -7.625 22.875
Se 16.775 -4.575 -22.875
Pb 16.775 -4.575 -19.825
Se 16.775 -4.575 -16.775
Pb 16.775 -4.575 -13.725
Se 16.775 -4.575 -10.675
Pb 16.775 -4.575 -7.625
Se 16.775 -4.575 -4.575
Pb 16.775 -4.575 -1.525
Se 16.775 -4.575 1.525
Pb 16.775 -4.575 4.575
Se 16.775 -4.575 7.625
Pb 16.775 -4.575 10.675
Se 16.775 -4.575 13.725
Pb 16.775 -4.575 16.775
Se 16.775 -4.575 19.825
Pb 16.775 -4.575 22.875
Pb 16.775 -1.525 -22.875
Se 16.775 -1.525 -19.825
Pb 16.775 -1.525 -16.775
Se 16.775 -1.525 -13.725
Pb 16.775 -1.525 -10.675
Se 16.775 -1.525 -7.625
Pb 16.775 -1.525 -4.575
Se 16.775 -1.525 -1.525
Pb 16.775 -1.525 1.525
Se 16.775 -1.525 4.575
Pb 16.775 -1.525 7.625
Se 16.775 -1.525 10.675
Pb 16.775 -1.525 13.725
Se 16.775 -1.525 16.775
Pb 16.775 -1.525 19.825
Se 16.775 -1.525 22.875
Se 16.775 1.525 -22.875
Pb 16.775 1.525 -19.825
Se 16.775 1.525 -16.775
Pb 16.775 1.525 -13.725
Se 16.775 1.525 -10.675
Pb 16.775 1.525 -7.625
Se 16.775 1.525 -4.575
Pb 16.775 1.525 -1.525
Se 16.775 1.525 1.525
Pb 16.775 1.525 4.575
Se 16.775 1.525 7.625
Pb 16.775 1.525 10.675
Se 16.775 1.525 13.725
Pb 16.775 1.525 16.775
Se 16.775 1.525 19.825
Pb 16.775 1.525 22.875
Pb 16.775 4.575 -22.875
Se 16.775 4.575 -19.825
Pb 16.775 4.575 -16.775
Se 16.775 4.575 -13.725
Pb 16.775 4.575 -10.675
Se 16.775 4.575 -7.625
Pb 16.775 4.575 -4.575
Se 16.775 4.575 -1.525
Pb 16.775 4.575 1.525
Se 16.775 4.575 4.575
Pb 16.775 4.575 7.625
Se 16.775 4.575 10.675
Pb 16.775 4.575 13.725
Se 16.775 4.575 16.775
Pb 16.775 4.575 19.825
Se 16.775 4.575 22.875
Se 16.775 7.625 -22.875
Pb 16.775 7.625 -19.825
Se 16.775 7.625 -16.775
Pb 16.775 7.625 -13.725
Se 16.775 7.625 -10.675
Pb 16.775 7.625 -7.625
Se 16.775 7.625 -4.575
Pb 16.775 7.625 -1.525
Se 16.775 7.625 1.525
Pb 16.775 7.625 4.575
Se 16.775 7.625 7.625
Pb 16.775 7.625 10.675
Se 16.775 7.625 13.725
Pb 16.775 7.625 16.775
Se 16.775 7.625 19.825
Pb 16.775 7.625 22.875
Pb 16.775 10.675 -22.875
Se 16.775 10.675 -19.825
Pb 16.775 10.675 -16.775
Se 16.775 10.675 -13.725
Pb 16.775 10.675 -10.675
Se 16.775 10.675 -7.625
Pb 16.775 10.675 -4.575
Se 16.775 10.675 -1.525
Pb 16.775 10.675 1.525
Se 16.775 10.675 4.575
Pb 16.775 10.675 7.625
Se 16.775 10.675 10.675
Pb 16.775 10.675 13.725
Se 16.775 10.675 16.775
Pb 16.775 10.675 19.825
Se 16.775 10.675 22.875
Se 16.775 13.725 -22.875
Pb 16.775 13.725 -19.825
Se 16.775 13.725 -16.775
Pb 16.775 13.725 -13.725
Se 16.775 13.725 -10.675
Pb 16.775 13.725 -7.625
Se 16.775 13.725 -4.575
Pb 16.775 13.725 -1.525
Se 16.775 13.725 1.525
Pb 16.775 13.725 4.575
Se 16.775 13.725 7.625
Pb 16.775 13.725 10.675
Se 16.775 13.725 13.725
Pb 16.775 13.725 16.775
Se 16.775 13.725 19.825
Pb 16.775 13.725 22.875
Pb 16.775 16.775 -22.875
Se 16.775 16.775 -19.825
Pb 16.775 16.775 -16.775
Se 16.775 16.775 -13.725
Pb 16.775 16.775 -10.675
Se 16.775 16.775 -7.625
Pb 16.775 16.775 -4.575
Se 16.775 16.775 -1.525
Pb 16.775 16.775 1.525
Se 16.775 16.775 4.575
Pb 16.775 16.775 7.625
Se 16.775 16.775 10.675
Pb 16.775 16.775 13.725
Se 16.775 16.775 16.775
Pb 16.775 16.775 19.825
Se 16.775 16.775 22.875
Se 16.775 19.825 -22.875
Pb 16.775 19.825 -19.825
Se 16.775 19.825 -16.775
Pb 16.775 19.825 -13.725
Se 16.775 19.825 -10.675
Pb 16.775 19.825 -7.625
Se 16.775 19.825 -4.575
Pb 16.775 19.825 -1.525
Se 16.775 19.825 1.525
Pb 16.775 19.825 4.575
Se 16.775 19.825 7.625
Pb 16.775 19.825 10.675
Se 16.775 19.825 13.725
Pb 16.775 19.825 16.775
Se 16.775 19.825 19.825
Pb 16.775 19.825 22.875
Pb 16.775 22.875 -22.875
Se 16.775 22.875 -19.825
Pb 16.775 22.875 -16.775
Se 16.775 22.875 -13.725
Pb 16.775 22.875 -10.675
Se 16.775 22.875 -7.625
Pb 16.775 22.875 -4.575
Se 16.775 22.875 -1.525
Pb 16.775 22.875 1.525
Se 16.775 22.875 4.575
Pb 16.775 22.875 7.625
Se 16.775 22.875 10.675
Pb 16.775 22.875 13.725
Se 16.775 22.875 16.775
Pb 16.775 22.875 19.825
Se 16.775 22.875 22.875
Pb 19.825 -22.875 -22.875
Se 19.825 -22.875 -19.825
Pb 19.825 -22.875 -16.775
Se 19.825 -22.875 -13.725
Pb 19.825 -22.875 -10.675
Se 19.825 -22.875 -7.625
Pb 19.825 -22.875 -4.575
Se 19.825 -22.875 -1.525
Pb 19.825 -22.875 1.525
Se 19.825 -22.875 4.575
Pb 19.825 -22.875 7.625
Se 19.825 -22.875 10.675
Pb 19.825 -22.875 13.725
Se 19.825 -22.875 16.775
Pb 19.825 -22.875 19.825
Se 19.825 -22.875 22.875
Se 19.825 -19.825 -22.875
Pb 19.825 -19.825 -19.825
Se 19.825 -19.825 -16.775
Pb 19.825 -19.825 -13.725
Se 19.825 -19.825 -10.675
Pb 19.825 -19.825 -7.625
Se 19.825 -19.825 -4.575
Pb 19.825 -19.825 -1.525
Se 19.825 -19.825 1.525
Pb 19.825 -19.825 4.575
Se 19.825 -19.825 7.625
Pb 19.825 -19.825 10.675
Se 19.825 -19.825 13.725
Pb 19.825 -19.825 16.775
Se 19.825 -19.825 19.825
Pb 19.825 -19.825 22.875
Pb 19.825 -16.775 -22.875
Se 19.825 -16.775 -19.825
Pb 19.825 -16.775 -16.775
Se 19.825 -16.775 -13.725
Pb 19.825 -16.775 -10.675
Se 19.825 -16.775 -7.625
Pb 19.825 -16.775 -4.575
Se 19.825 -16.775 -1.525
Pb 19.825 -16.775 1.525
Se 19.825 -16.775 4.575
Pb 19.825 -16.775 7.625
Se 19.825 -16.775 10.675
Pb 19.825 -16.775 13.725
Se 19.825 -16.775 16.775
Pb 19.825 -16.775 19.825
Se 19.825 -16.775 22.875
Se 19.825 -13.725 -22.875
Pb 19.825 -13.725 -19.825
Se 19.825 -13.725 -16.775
Pb 19.825 -13.725 -13.725
Se 19.825 -13.725 -10.675
Pb 19.825 -13.725 -7.625
Se 19.825 -13.725 -4.575
Pb 19.825 -13.725 -1.525
Se 19.825 -13.725 1.525
Pb 19.825 -13.725 4.575
Se 19.825 -13.725 7.625
Pb 19.825 -13.725 10.675
Se 19.825 -13.725 13.725
Pb 19.825 -13.725 16.775
Se 19.825 -13.725 19.825
Pb 19.825 -13.725 22.875
Pb 19.825 -10.675 -22.875
Se 19.825 -10.675 -19.825
Pb 19.825 -10.675 -16.775
Se 19.825 -10.675 -13.725
Pb 19.825 -10.675 -10.675
Se 19.825 -10.675 -7.625
Pb 19.825 -10.675 -4.575
Se 19.825 -10.675 -1.525
Pb 19.825 -10.675 1.525
Se 19.825 -10.675 4.575
Pb 19.825 -10.675 7.625
Se 19.825 -10.675 10.675
Pb 19.825 -10.675 13.725
Se 19.825 -10.675 16.775
Pb 19.825 -10.675 19.825
Se 19.825 -10.675 22.875
Se 19.825 -7.625 -22.875
Pb 19.825 -7.625 -19.825
Se 19.825 -7.625 -16.775
Pb 19.825 -7.625 -13.725
Se 19.825 -7.625 -10.675
Pb 19.825 -7.625 -7.625
Se 19.825 -7.625 -4.575
Pb 19.825 -7.625 -1.525
Se 19.825 -7.625 1.525
Pb 19.825 -7.625 4.575
Se 19.825 -7.625 7.625
Pb 19.825 -7.625 10.675
Se 19.825 -7.625 13.725
Pb 19.825 -7.625 16.775
Se 19.825 -7.625 19.825
Pb 19.825 -7.625 22.875
Pb 19.825 -4.575 -22.875
Se 19.825 -4.575 -19.825
Pb 19.825 -4.575 -16.775
Se 19.825 -4.575 -13.725
Pb 19.825 -4.575 -10.675
Se 19.825 -4.575 -7.625
Pb 19.825 -4.575 -4.575
Se 19.825 -4.575 -1.525
Pb 19.825 -4.575 1.525
Se 19.825 -4.575 4.575
Pb 19.825 -4.575 7.625
Se 19.825 -4.575 10.675
Pb 19.825 -4.575 13.725
Se 19.825 -4.575 16.775
Pb 19.825 -4.575 19.825
Se 19.825 -4.575 22.875
Se 19.825 -1.525 -22.875
Pb 19.825 -1.525 -19.825
Se 19.825 -1.525 -16.775
Pb 19.825 -1.525 -13.725
Se 19.825 -1.525 -10.675
Pb 19.825 -1.525 -7.625
Se 19.825 -1.525 -4.575
Pb 19.825 -1.525 -1.525
Se 19.825 -1.525 1.525
Pb 19.825 -1.525 4.575
Se 19.825 -1.525 7.625
Pb 19.825 -1.525 10.675
Se 19.825 -1.525 13.725
Pb 19.825 -1.525 16.775
Se 19.825 -1.525 19.825
Pb 19.825 -1.525 22.875
Pb 19.825 1.525 -22.875
Se 19.825 1.525 -19.825
Pb 19.825 1.525 -16.775
Se 19.825 1.525 -13.725
Pb 19.825 1.525 -10.675
Se 19.825 1.525 -7.625
Pb 19.825 1.525 -4.575
Se 19.825 1.525 -1.525
Pb 19.825 1.525 1.525
Se 19.825 1.525 4.575
Pb 19.825 1.525 7.625
Se 19.825 1.525 10.675
Pb 19.825 1.525 13.725
Se 19.825 1.525 16.775
Pb 19.825 1.525 19.825
Se 19.825 1.525 22.875
Se 19.825 4.575 -22.875
Pb 19.825 4.575 -19.825
Se 19.825 4.575 -16.775
Pb 19.825 4.575 -13.725
Se 19.825 4.575 -10.675
Pb 19.825 4.575 -7.625
Se 19.825 4.575 -4.575
Pb 19.825 4.575 -1.525
Se 19.825 4.575 1.525
Pb 19.825 4.575 4.575
Se 19.825 4.575 7.625
Pb 19.825 4.575 10.675
Se 19.825 4.575 13.725
Pb 19.825 4.575 16.775
Se 19.825 4.575 19.825
Pb 19.825 4.575 22.875
Pb 19.825 7.625 -22.875
Se 19.825 7.625 -19.825
Pb 19.825 7.625 -16.775
Se 19.825 7.625 -13.725
Pb 19.825 7.625 -10.675
Se 19.825 7.625 -7.625
Pb 19.825 7.625 -4.575
Se 19.825 7.625 -1.525
Pb 19.825 7.625 1.525
Se 19.825 7.625 4.575
Pb 19.825 7.625 7.625
Se 19.825 7.625 10.675
Pb 19.825 7.625 13.725
Se 19.825 7.625 16.775
Pb 19.825 7.625 19.825
Se 19.825 7.625 22.875
Se 19.825 10.675 -22.875
Pb 19.825 10.675 -19.825
Se 19.825 10.675 -16.775
Pb 19.825 10.675 -13.725
Se 19.825 10.675 -10.675
Pb 19.825 10.675 -7.625
Se 19.825 10.675 -4.575
Pb 19.825 10.675 -1.525
Se 19.825 10.675 1.525
Pb 19.825 10.675 4.575
Se 19.825 10.675 7.625
Pb 19.825 10.675 10.675
Se 19.825 10.675 13.725
Pb 19.825 10.675 16.775
Se 19.825 10.675 19.825
Pb 19.825 10.675 22.875
Pb 19.825 13.725 -22.875
Se 19.825 13.725 -19.825
Pb 19.825 13.725 -16.775
Se 19.825 13.725 -13.725
Pb 19.825 13.725 -10.675
Se 19.825 13.725 -7.625
Pb 19.825 13.725 -4.575
Se 19.825 13.725 -1.525
Pb 19.825 13.725 1.525
Se 19.825 13.725 4.575
Pb 19.825 13.725 7.625
Se 19.825 13.725 10.675
Pb 19.825 13.725 13.725
Se 19.825 13.725 16.775
Pb 19.825 13.725 19.825
Se 19.825 13.725 22.875
Se 19.825 16.775 -22.875
Pb 19.825 16.775 -19.825
Se 19.825 16.775 -16.775
Pb 19.825 16.775 -13.725
Se 19.825 16.775 -10.675
Pb 19.825 16.775 -7.625
Se 19.825 16.775 -4.575
Pb 19.825 16.775 -1.525
Se 19.825 16.775 1.525
Pb 19.825 16.775 4.575
Se 19.825 16.775 7.625
Pb 19.825 16.775 10.675
Se 19.825 16.775 13.725
Pb 19.825 16.775 16.775
Se 19.825 16.775 19.825
Pb 19.825 16.775 22.875
Pb 19.825 19.825 -22.875
Se 19.825 19.825 -19.825
Pb 19.825 19.825 -16.775
Se 19.825 19.825 -13.725
Pb 19.825 19.825 -10.675
Se 19.825 19.825 -7.625
Pb 19.825 19.825 -4.575
Se 19.825 19.825 -1.525
Pb 19.825 19.825 1.525
Se 19.825 19.825 4.575
Pb 19.825 19.825 7.625
Se 19.825 19.825 10.675
Pb 19.825 19.825 13.725
Se 19.825 19.825 16.775
Pb 19.825 19.825 19.825
Se 19.825 19.825 22.875
Se 19.825 22.875 -22.875
Pb 19.825 22.875 -19.825
Se 19.825 22.875 -16.775
Pb 19.825 22.875 -13.725
Se 19.825 22.875 -10.675
Pb 19.825 22.875 -7.625
Se 19.825 22.875 -4.575
Pb 19.825 22.875 -1.525
Se 19.825 22.875 1.525
Pb 19.825 22.875 4.575
Se 19.825 22.875 7.625
Pb 19.825 22.875 10.675
Se 19.825 22.875 13.725
Pb 19.825 22.875 16.775
Se 19.825 22.875 19.825
Pb 19.825 22.875 22.875
Se 22.875 -22.875 -22.875
Pb 22.875 -22.875 -19.825
Se 22.875 -22.875 -16.775
Pb 22.875 -22.875 -13.725
Se 22.875 -22.875 -10.675
Pb 22.875 -22.875 -7.625
Se 22.875 -22.875 -4.575
Pb 22.875 -22.875 -1.525
Se 22.875 -22.875 1.525
Pb 22.875 -22.875 4.575
Se 22.875 -22.875 7.625
Pb 22.875 -22.875 10.675
Se 22.875 -22.875 13.725
Pb 22.875 -22.875 16.775
Se 22.875 -22.875 19.825
Pb 22.875 -22.875 22.875
Pb 22.875 -19.825 -22.875
Se 22.875 -19.825 -19.825
Pb 22.875 -19.825 -16.775
Se 22.875 -19.825 -13.725
Pb 22.875 -19.825 -10.675
Se 22.875 -19.825 -7.625
Pb 22.875 -19.825 -4.575
Se 22.875 -19.825 -1.525
Pb 22.875 -19.825 1.525
Se 22.875 -19.825 4.575
Pb 22.875 -19.825 7.625
Se 22.875 -19.825 10.675
Pb 22.875 -19.825 13.725
Se 22.875 -19.825 16.775
Pb 22.875 -19.825 19.825
Se 22.875 -19.825 22.875
Se 22.875 -16.775 -22.875
Pb 22.875 -16.775 -19.825
Se 22.875 -16.775 -16.775
Pb 22.875 -16.775 -13.725
Se 22.875 -16.775 -10.675
Pb 22.875 -16.775 -7.625
Se 22.875 -16.775 -4.575
Pb 22.875 -16.775 -1.525
Se 22.875 -16.775 1.525
Pb 22.875 -16.775 4.575
Se 22.875 -16.775 7.625
Pb 22.875 -16.775 10.675
Se 22.875 -16.775 13.725
Pb 22.875 -16.775 16.775
Se 22.875 -16.775 19.825
Pb 22.875 -16.775 22.875
Pb 22.875 -13.725 -22.875
Se 22.875 -13.725 -19.825
Pb 22.875 -13.725 -16.775
Se 22.875 -13.725 -13.725
Pb 22.875 -13.725 -10.675
Se 22.875 -13.725 -7.625
Pb 22.875 -13.725 -4.575
Se 22.875 -13.725 -1.525
Pb 22.875 -13.725 1.525
Se 22.875 -13.725 4.575
Pb 22.875 -13.725 7.625
Se 22.875 -13.725 10.675
Pb 22.875 -13.725 13.725
Se 22.875 -13.725 16.775
Pb 22.875 -13.725 19.825
Se 22.875 -13.725 22.875
Se 22.875 -10.675 -22.875
Pb 22.875 -10.675 -19.825
Se 22.875 -10.675 -16.775
Pb 22.875 -10.675 -13.725
Se 22.875 -10.675 -10.675
Pb 22.875 -10.675 -7.625
Se 22.875 -10.675 -4.575
Pb 22.875 -10.675 -1.525
Se 22.875 -10.675 1.525
Pb 22.875 -10.675 4.575
Se 22.875 -10.675 7.625
Pb 22.875 -10.675 10.675
Se 22.875 -10.675 13.725
Pb 22.875 -10.675 16.775
Se 22.875 -10.675 19.825
Pb 22.875 -10.675 22.875
Pb 22.875 -7.625 -22.875
Se 22.875 -7.625 -19.825
Pb 22.875 -7.625 -16.775
Se 22.875 -7.625 -13.725
Pb 22.875 -7.625 -10.675
Se 22.875 -7.625 -7.625
Pb 22.875 -7.625 -4.575
Se 22.875 -7.625 -1.525
Pb 22.875 -7.625 1.525
Se 22.875 -7.625 4.575
Pb 22.875 -7.625 7.625
Se 22.875 -7.625 10.675
Pb 22.875 -7.625 13.725
Se 22.875 -7.625 16.775
Pb 22.875 -7.625 19.825
Se 22.875 -7.625 22.875
Se 22.875 -4.575 -22.875
Pb 22.875 -4.575 -19.825
Se 22.875 -4.575 -16.775
Pb 22.875 -4.575 -13.725
Se 22.875 -4.575 -10.675
Pb 22.875 -4.575 -7.625
Se 22.875 -4.575 -4.575
Pb 22.875 -4.575 -1.525
Se 22.875 -4.575 1.525
Pb 22.875 -4.575 4.575
Se 22.875 -4.575 7.625
Pb 22.875 -4.575 10.675
Se 22.875 -4.575 13.725
Pb 22.875 -4.575 16.775
Se 22.875 -4.575 19.825
Pb 22.875 -4.575 22.875
Pb 22.875 -1.525 -22.875
Se 22.875 -1.525 -19.825
Pb 22.875 -1.525 -16.775
Se 22.875 -1.525 -13.725
Pb 22.875 -1.525 -10.675
Se 22.875 -1.525 -7.625
Pb 22.875 -1.525 -4.575
Se 22.875 -1.525 -1.525
Pb 22.875 -1.525 1.525
Se 22.875 -1.525 4.575
Pb 22.875 -1.525 7.625
Se 22.875 -1.525 10.675
Pb 22.875 -1.525 13.725
Se 22.875 -1.525 16.775
Pb 22.875 -1.525 19.825
Se 22.875 -1.525 22.875
Se 22.875 1.525 -22.875
Pb 22.875 1.525 -19.825
Se 22.875 1.525 -16.775
Pb 22.875 1.525 -13.725
Se 22.875 1.525 -10.675
Pb 22.875 1.525 -7.625
Se 22.875 1.525 -4.575
Pb 22.875 1.525 -1.525
Se 22.875 1.525 1.525
Pb 22.875 1.525 4.575
Se 22.875 1.525 7.625
Pb 22.875 1.525 10.675
Se 22.875 1.525 13.725
Pb 22.875 1.525 16.775
Se 22.875 1.525 19.825
Pb 22.875 1.525 22.875
Pb 22.875 4.575 -22.875
Se 22.875 4.575 -19.825
Pb 22.875 4.575 -16.775
Se 22.875 4.575 -13.725
Pb 22.875 4.575 -10.675
Se 22.875 4.575 -7.625
Pb 22.875 4.575 -4.575
Se 22.875 4.575 -1.525
Pb 22.875 4.575 1.525
Se 22.875 4.575 4.575
Pb 22.875 4.575 7.625
Se 22.875 4.575 10.675
Pb 22.875 4.575 13.725
Se 22.875 4.575 16.775
Pb 22.875 4.575 19.825
Se 22.875 4.575 22.875
Se 22.875 7.625 -22.875
Pb 22.875 7.625 -19.825
Se 22.875 7.625 -16.775
Pb 22.875 7.625 -13.725
Se 22.875 7.625 -10.675
Pb 22.875 7.625 -7.625
Se 22.875 7.625 -4.575
Pb 22.875 7.625 -1.525
Se 22.875 7.625 1.525
Pb 22.875 7.625 4.575
Se 22.875 7.625 7.625
Pb 22.875 7.625 10.675
Se 22.875 7.625 13.725
Pb 22.875 7.625 16.775
Se 22.875 7.625 19.825
Pb 22.875 7.625 22.875
Pb 22.875 10.675 -22.875
Se 22.875 10.675 -19.825
Pb 22.875 10.675 -16.775
Se 22.875 10.675 -13.725
Pb 22.875 10.675 -10.675
Se 22.875 10.675 -7.625
Pb 22.875 10.675 -4.575
Se 22.875 10.675 -1.525
Pb 22.875 10.675 1.525
Se 22.875 10.675 4.575
Pb 22.875 10.675 7.625
Se 22.875 10.675 10.675
Pb 22.875 10.675 13.725
Se 22.875 10.675 16.775
Pb 22.875 10.675 19.825
Se 22.875 10.675 22.875
Se 22.875 13.725 -22.875
Pb 22.875 13.725 -19.825
Se 22.875 13.725 -16.775
Pb 22.875 13.725 -13.725
Se 22.875 13.725 -10.675
Pb 22.875 13.725 -7.625
Se 22.875 13.725 -4.575
Pb 22.875 13.725 -1.525
Se 22.875 13.725 1.525
Pb 22.875 13.725 4.575
Se 22.875 13.725 7.625
Pb 22.875 13.725 10.675
Se 22.875 13.725 13.725
Pb 22.875 13.725 16.775
Se 22.875 13.725 19.825
Pb 22.875 13.725 22.875
Pb 22.875 16.775 -22.875
Se 22.875 16.775 -19.825
Pb 22.875 16.775 -16.775
Se 22.875 16.775 -13.725
Pb 22.875 16.775 -10.675
Se 22.875 16.775 -7.625
Pb 22.875 16.775 -4.575
Se 22.875 16.775 -1.525
Pb 22.875 16.775 1.525
Se 22.875 16.775 4.575
Pb 22.875 16.775 7.625
Se 22.875 16.775 10.675
Pb 22.875 16.775 13.725
Se 22.875 16.775 16.775
Pb 22.875 16.775 19.825
Se 22.875 16.775 22.875
Se 22.875 19.825 -22.875
Pb 22.875 19.825 -19.825
Se 22.875 19.825 -16.775
Pb 22.875 19.825 -13.725
Se 22.875 19.825 -10.675
Pb 22.875 19.825 -7.625
Se 22.875 19.825 -4.575
Pb 22.875 19.825 -1.525
Se 22.875 19.825 1.525
Pb 22.875 19.825 4.575
Se 22.875 19.825 7.625
Pb 22.875 19.825 10.675
Se 22.875 19.825 13.725
Pb 22.875 19.825 16.775
Se 22.875 19.825 19.825
Pb 22.875 19.825 22.875
Pb 22.875 22.875 -22.875
Se 22.875 22.875 -19.825
Pb 22.875 22.875 -16.775
Se 22.875 22.875 -13.725
Pb 22.875 22.875 -10.675
Se 22.875 22.875 -7.625
Pb 22.875 22.875 -4.575
Se 22.875 22.875 -1.525
Pb 22.875 22.875 1.525
Se 22.875 22.875 4.575
Pb 22.875 22.875 7.625
Se 22.875 22.875 10.675
Pb 22.875 22.875 13.725
Se 22.875 22.875 16.775
Pb 22.875 22.875 19.825
Se 22.875 22.875 22.875
