582
ILLUSTRATIVE bare ellipsoid crop from COD9016056; Cd288Se294; units=angstrom; exact buildCrystal coordinate order; nominal 3.5x3.0 nm; not measured QD; ligands/faults/reconstruction omitted
Se -8.598000000000 -9.928115228985 -7.873702100000
Cd -8.598000000000 -9.928115228985 -3.505000000000
Se -10.747500000000 -8.687100825362 -4.368702100000
Se -8.598000000000 -9.928115228985 -0.863702100000
Cd -10.747500000000 -8.687100825362 0.000000000000
Cd -8.598000000000 -9.928115228985 3.505000000000
Se -10.747500000000 -8.687100825362 2.641297900000
Se -8.598000000000 -9.928115228985 6.146297900000
Se -10.747500000000 -6.205072018116 -7.873702100000
Cd -10.747500000000 -6.205072018116 -3.505000000000
Se -12.897000000000 -4.964057614492 -4.368702100000
Se -10.747500000000 -6.205072018116 -0.863702100000
Cd -12.897000000000 -4.964057614492 0.000000000000
Cd -10.747500000000 -6.205072018116 3.505000000000
Se -12.897000000000 -4.964057614492 2.641297900000
Se -10.747500000000 -6.205072018116 6.146297900000
Se -12.897000000000 -2.482028807246 -7.873702100000
Cd -12.897000000000 -2.482028807246 -3.505000000000
Se -12.897000000000 -2.482028807246 -0.863702100000
Cd -12.897000000000 -2.482028807246 3.505000000000
Se -12.897000000000 -2.482028807246 6.146297900000
Cd -4.299000000000 -12.410144036231 -7.010000000000
Cd -2.149500000000 -13.651158439854 -3.505000000000
Se -4.299000000000 -12.410144036231 -4.368702100000
Se -2.149500000000 -13.651158439854 -0.863702100000
Cd -4.299000000000 -12.410144036231 0.000000000000
Cd -2.149500000000 -13.651158439854 3.505000000000
Se -4.299000000000 -12.410144036231 2.641297900000
Se -2.149500000000 -13.651158439854 6.146297900000
Cd -4.299000000000 -12.410144036231 7.010000000000
Cd -4.299000000000 -9.928115228985 -10.515000000000
Se -6.448500000000 -8.687100825362 -11.378702100000
Se -4.299000000000 -9.928115228985 -7.873702100000
Cd -6.448500000000 -8.687100825362 -7.010000000000
Cd -4.299000000000 -9.928115228985 -3.505000000000
Se -6.448500000000 -8.687100825362 -4.368702100000
Se -4.299000000000 -9.928115228985 -0.863702100000
Cd -6.448500000000 -8.687100825362 0.000000000000
Cd -4.299000000000 -9.928115228985 3.505000000000
Se -6.448500000000 -8.687100825362 2.641297900000
Se -4.299000000000 -9.928115228985 6.146297900000
Cd -6.448500000000 -8.687100825362 7.010000000000
Cd -4.299000000000 -9.928115228985 10.515000000000
Se -6.448500000000 -8.687100825362 9.651297900000
Cd -6.448500000000 -6.205072018116 -10.515000000000
Se -8.598000000000 -4.964057614492 -11.378702100000
Se -6.448500000000 -6.205072018116 -7.873702100000
Cd -8.598000000000 -4.964057614492 -7.010000000000
Cd -6.448500000000 -6.205072018116 -3.505000000000
Se -8.598000000000 -4.964057614492 -4.368702100000
Se -6.448500000000 -6.205072018116 -0.863702100000
Cd -8.598000000000 -4.964057614492 0.000000000000
Cd -6.448500000000 -6.205072018116 3.505000000000
Se -8.598000000000 -4.964057614492 2.641297900000
Se -6.448500000000 -6.205072018116 6.146297900000
Cd -8.598000000000 -4.964057614492 7.010000000000
Cd -6.448500000000 -6.205072018116 10.515000000000
Se -8.598000000000 -4.964057614492 9.651297900000
Se -6.448500000000 -6.205072018116 13.156297900000
Cd -8.598000000000 -2.482028807246 -10.515000000000
Se -10.747500000000 -1.241014403623 -11.378702100000
Se -8.598000000000 -2.482028807246 -7.873702100000
Cd -10.747500000000 -1.241014403623 -7.010000000000
Cd -8.598000000000 -2.482028807246 -3.505000000000
Se -10.747500000000 -1.241014403623 -4.368702100000
Se -8.598000000000 -2.482028807246 -0.863702100000
Cd -10.747500000000 -1.241014403623 0.000000000000
Cd -8.598000000000 -2.482028807246 3.505000000000
Se -10.747500000000 -1.241014403623 2.641297900000
Se -8.598000000000 -2.482028807246 6.146297900000
Cd -10.747500000000 -1.241014403623 7.010000000000
Cd -8.598000000000 -2.482028807246 10.515000000000
Se -10.747500000000 -1.241014403623 9.651297900000
Se -8.598000000000 -2.482028807246 13.156297900000
Cd -10.747500000000 1.241014403623 -10.515000000000
Se -10.747500000000 1.241014403623 -7.873702100000
Cd -12.897000000000 2.482028807246 -7.010000000000
Cd -10.747500000000 1.241014403623 -3.505000000000
Se -12.897000000000 2.482028807246 -4.368702100000
Se -10.747500000000 1.241014403623 -0.863702100000
Cd -12.897000000000 2.482028807246 0.000000000000
Cd -10.747500000000 1.241014403623 3.505000000000
Se -12.897000000000 2.482028807246 2.641297900000
Se -10.747500000000 1.241014403623 6.146297900000
Cd -12.897000000000 2.482028807246 7.010000000000
Cd -10.747500000000 1.241014403623 10.515000000000
Cd -12.897000000000 4.964057614492 -3.505000000000
Se -12.897000000000 4.964057614492 -0.863702100000
Cd -12.897000000000 4.964057614492 3.505000000000
Se -12.897000000000 4.964057614492 6.146297900000
Cd 0.000000000000 -12.410144036231 -7.010000000000
Cd 2.149500000000 -13.651158439854 -3.505000000000
Se 0.000000000000 -12.410144036231 -4.368702100000
Se 2.149500000000 -13.651158439854 -0.863702100000
Cd 0.000000000000 -12.410144036231 0.000000000000
Cd 2.149500000000 -13.651158439854 3.505000000000
Se 0.000000000000 -12.410144036231 2.641297900000
Se 2.149500000000 -13.651158439854 6.146297900000
Cd 0.000000000000 -12.410144036231 7.010000000000
Se 0.000000000000 -12.410144036231 9.651297900000
Cd -2.149500000000 -8.687100825362 -14.020000000000
Cd -0.000000000000 -9.928115228985 -10.515000000000
Se -2.149500000000 -8.687100825362 -11.378702100000
Se -0.000000000000 -9.928115228985 -7.873702100000
Cd -2.149500000000 -8.687100825362 -7.010000000000
Cd -0.000000000000 -9.928115228985 -3.505000000000
Se -2.149500000000 -8.687100825362 -4.368702100000
Se -0.000000000000 -9.928115228985 -0.863702100000
Cd -2.149500000000 -8.687100825362 0.000000000000
Cd -0.000000000000 -9.928115228985 3.505000000000
Se -2.149500000000 -8.687100825362 2.641297900000
Se -0.000000000000 -9.928115228985 6.146297900000
Cd -2.149500000000 -8.687100825362 7.010000000000
Cd -0.000000000000 -9.928115228985 10.515000000000
Se -2.149500000000 -8.687100825362 9.651297900000
Cd -2.149500000000 -8.687100825362 14.020000000000
Se -2.149500000000 -6.205072018116 -14.883702100000
Cd -4.299000000000 -4.964057614492 -14.020000000000
Cd -2.149500000000 -6.205072018116 -10.515000000000
Se -4.299000000000 -4.964057614492 -11.378702100000
Se -2.149500000000 -6.205072018116 -7.873702100000
Cd -4.299000000000 -4.964057614492 -7.010000000000
Cd -2.149500000000 -6.205072018116 -3.505000000000
Se -4.299000000000 -4.964057614492 -4.368702100000
Se -2.149500000000 -6.205072018116 -0.863702100000
Cd -4.299000000000 -4.964057614492 0.000000000000
Cd -2.149500000000 -6.205072018116 3.505000000000
Se -4.299000000000 -4.964057614492 2.641297900000
Se -2.149500000000 -6.205072018116 6.146297900000
Cd -4.299000000000 -4.964057614492 7.010000000000
Cd -2.149500000000 -6.205072018116 10.515000000000
Se -4.299000000000 -4.964057614492 9.651297900000
Se -2.149500000000 -6.205072018116 13.156297900000
Cd -4.299000000000 -4.964057614492 14.020000000000
Se -4.299000000000 -2.482028807246 -14.883702100000
Cd -6.448500000000 -1.241014403623 -14.020000000000
Cd -4.299000000000 -2.482028807246 -10.515000000000
Se -6.448500000000 -1.241014403623 -11.378702100000
Se -4.299000000000 -2.482028807246 -7.873702100000
Cd -6.448500000000 -1.241014403623 -7.010000000000
Cd -4.299000000000 -2.482028807246 -3.505000000000
Se -6.448500000000 -1.241014403623 -4.368702100000
Se -4.299000000000 -2.482028807246 -0.863702100000
Cd -6.448500000000 -1.241014403623 0.000000000000
Cd -4.299000000000 -2.482028807246 3.505000000000
Se -6.448500000000 -1.241014403623 2.641297900000
Se -4.299000000000 -2.482028807246 6.146297900000
Cd -6.448500000000 -1.241014403623 7.010000000000
Cd -4.299000000000 -2.482028807246 10.515000000000
Se -6.448500000000 -1.241014403623 9.651297900000
Se -4.299000000000 -2.482028807246 13.156297900000
Cd -6.448500000000 -1.241014403623 14.020000000000
Se -6.448500000000 1.241014403623 -14.883702100000
Cd -8.598000000000 2.482028807246 -14.020000000000
Cd -6.448500000000 1.241014403623 -10.515000000000
Se -8.598000000000 2.482028807246 -11.378702100000
Se -6.448500000000 1.241014403623 -7.873702100000
Cd -8.598000000000 2.482028807246 -7.010000000000
Cd -6.448500000000 1.241014403623 -3.505000000000
Se -8.598000000000 2.482028807246 -4.368702100000
Se -6.448500000000 1.241014403623 -0.863702100000
Cd -8.598000000000 2.482028807246 0.000000000000
Cd -6.448500000000 1.241014403623 3.505000000000
Se -8.598000000000 2.482028807246 2.641297900000
Se -6.448500000000 1.241014403623 6.146297900000
Cd -8.598000000000 2.482028807246 7.010000000000
Cd -6.448500000000 1.241014403623 10.515000000000
Se -8.598000000000 2.482028807246 9.651297900000
Se -6.448500000000 1.241014403623 13.156297900000
Cd -8.598000000000 2.482028807246 14.020000000000
Cd -8.598000000000 4.964057614492 -10.515000000000
Se -8.598000000000 4.964057614492 -7.873702100000
Cd -10.747500000000 6.205072018116 -7.010000000000
Cd -8.598000000000 4.964057614492 -3.505000000000
Se -10.747500000000 6.205072018116 -4.368702100000
Se -8.598000000000 4.964057614492 -0.863702100000
Cd -10.747500000000 6.205072018116 0.000000000000
Cd -8.598000000000 4.964057614492 3.505000000000
Se -10.747500000000 6.205072018116 2.641297900000
Se -8.598000000000 4.964057614492 6.146297900000
Cd -10.747500000000 6.205072018116 7.010000000000
Cd -8.598000000000 4.964057614492 10.515000000000
Se -10.747500000000 6.205072018116 9.651297900000
Cd -10.747500000000 8.687100825362 -3.505000000000
Se -10.747500000000 8.687100825362 -0.863702100000
Cd -10.747500000000 8.687100825362 3.505000000000
Se -10.747500000000 8.687100825362 6.146297900000
Cd 4.299000000000 -12.410144036231 -7.010000000000
Se 4.299000000000 -12.410144036231 -4.368702100000
Cd 4.299000000000 -12.410144036231 0.000000000000
Se 4.299000000000 -12.410144036231 2.641297900000
Cd 4.299000000000 -12.410144036231 7.010000000000
Cd 2.149500000000 -8.687100825362 -14.020000000000
Cd 4.299000000000 -9.928115228985 -10.515000000000
Se 2.149500000000 -8.687100825362 -11.378702100000
Se 4.299000000000 -9.928115228985 -7.873702100000
Cd 2.149500000000 -8.687100825362 -7.010000000000
Cd 4.299000000000 -9.928115228985 -3.505000000000
Se 2.149500000000 -8.687100825362 -4.368702100000
Se 4.299000000000 -9.928115228985 -0.863702100000
Cd 2.149500000000 -8.687100825362 0.000000000000
Cd 4.299000000000 -9.928115228985 3.505000000000
Se 2.149500000000 -8.687100825362 2.641297900000
Se 4.299000000000 -9.928115228985 6.146297900000
Cd 2.149500000000 -8.687100825362 7.010000000000
Cd 4.299000000000 -9.928115228985 10.515000000000
Se 2.149500000000 -8.687100825362 9.651297900000
Cd 2.149500000000 -8.687100825362 14.020000000000
Se 2.149500000000 -6.205072018116 -14.883702100000
Cd 0.000000000000 -4.964057614492 -14.020000000000
Cd 2.149500000000 -6.205072018116 -10.515000000000
Se 0.000000000000 -4.964057614492 -11.378702100000
Se 2.149500000000 -6.205072018116 -7.873702100000
Cd 0.000000000000 -4.964057614492 -7.010000000000
Cd 2.149500000000 -6.205072018116 -3.505000000000
Se 0.000000000000 -4.964057614492 -4.368702100000
Se 2.149500000000 -6.205072018116 -0.863702100000
Cd 0.000000000000 -4.964057614492 0.000000000000
Cd 2.149500000000 -6.205072018116 3.505000000000
Se 0.000000000000 -4.964057614492 2.641297900000
Se 2.149500000000 -6.205072018116 6.146297900000
Cd 0.000000000000 -4.964057614492 7.010000000000
Cd 2.149500000000 -6.205072018116 10.515000000000
Se 0.000000000000 -4.964057614492 9.651297900000
Se 2.149500000000 -6.205072018116 13.156297900000
Cd 0.000000000000 -4.964057614492 14.020000000000
Se 0.000000000000 -2.482028807246 -14.883702100000
Cd -2.149500000000 -1.241014403623 -14.020000000000
Cd 0.000000000000 -2.482028807246 -10.515000000000
Se -2.149500000000 -1.241014403623 -11.378702100000
Se 0.000000000000 -2.482028807246 -7.873702100000
Cd -2.149500000000 -1.241014403623 -7.010000000000
Cd 0.000000000000 -2.482028807246 -3.505000000000
Se -2.149500000000 -1.241014403623 -4.368702100000
Se 0.000000000000 -2.482028807246 -0.863702100000
Cd -2.149500000000 -1.241014403623 0.000000000000
Cd 0.000000000000 -2.482028807246 3.505000000000
Se -2.149500000000 -1.241014403623 2.641297900000
Se 0.000000000000 -2.482028807246 6.146297900000
Cd -2.149500000000 -1.241014403623 7.010000000000
Cd 0.000000000000 -2.482028807246 10.515000000000
Se -2.149500000000 -1.241014403623 9.651297900000
Se 0.000000000000 -2.482028807246 13.156297900000
Cd -2.149500000000 -1.241014403623 14.020000000000
Se -2.149500000000 -1.241014403623 16.661297900000
Se -2.149500000000 1.241014403623 -14.883702100000
Cd -4.299000000000 2.482028807246 -14.020000000000
Cd -2.149500000000 1.241014403623 -10.515000000000
Se -4.299000000000 2.482028807246 -11.378702100000
Se -2.149500000000 1.241014403623 -7.873702100000
Cd -4.299000000000 2.482028807246 -7.010000000000
Cd -2.149500000000 1.241014403623 -3.505000000000
Se -4.299000000000 2.482028807246 -4.368702100000
Se -2.149500000000 1.241014403623 -0.863702100000
Cd -4.299000000000 2.482028807246 0.000000000000
Cd -2.149500000000 1.241014403623 3.505000000000
Se -4.299000000000 2.482028807246 2.641297900000
Se -2.149500000000 1.241014403623 6.146297900000
Cd -4.299000000000 2.482028807246 7.010000000000
Cd -2.149500000000 1.241014403623 10.515000000000
Se -4.299000000000 2.482028807246 9.651297900000
Se -2.149500000000 1.241014403623 13.156297900000
Cd -4.299000000000 2.482028807246 14.020000000000
Se -4.299000000000 4.964057614492 -14.883702100000
Cd -6.448500000000 6.205072018116 -14.020000000000
Cd -4.299000000000 4.964057614492 -10.515000000000
Se -6.448500000000 6.205072018116 -11.378702100000
Se -4.299000000000 4.964057614492 -7.873702100000
Cd -6.448500000000 6.205072018116 -7.010000000000
Cd -4.299000000000 4.964057614492 -3.505000000000
Se -6.448500000000 6.205072018116 -4.368702100000
Se -4.299000000000 4.964057614492 -0.863702100000
Cd -6.448500000000 6.205072018116 0.000000000000
Cd -4.299000000000 4.964057614492 3.505000000000
Se -6.448500000000 6.205072018116 2.641297900000
Se -4.299000000000 4.964057614492 6.146297900000
Cd -6.448500000000 6.205072018116 7.010000000000
Cd -4.299000000000 4.964057614492 10.515000000000
Se -6.448500000000 6.205072018116 9.651297900000
Se -4.299000000000 4.964057614492 13.156297900000
Cd -6.448500000000 6.205072018116 14.020000000000
Cd -6.448500000000 8.687100825362 -10.515000000000
Se -6.448500000000 8.687100825362 -7.873702100000
Cd -8.598000000000 9.928115228985 -7.010000000000
Cd -6.448500000000 8.687100825362 -3.505000000000
Se -8.598000000000 9.928115228985 -4.368702100000
Se -6.448500000000 8.687100825362 -0.863702100000
Cd -8.598000000000 9.928115228985 0.000000000000
Cd -6.448500000000 8.687100825362 3.505000000000
Se -8.598000000000 9.928115228985 2.641297900000
Se -6.448500000000 8.687100825362 6.146297900000
Cd -8.598000000000 9.928115228985 7.010000000000
Cd -6.448500000000 8.687100825362 10.515000000000
Se 6.448500000000 -8.687100825362 -11.378702100000
Se 8.598000000000 -9.928115228985 -7.873702100000
Cd 6.448500000000 -8.687100825362 -7.010000000000
Cd 8.598000000000 -9.928115228985 -3.505000000000
Se 6.448500000000 -8.687100825362 -4.368702100000
Se 8.598000000000 -9.928115228985 -0.863702100000
Cd 6.448500000000 -8.687100825362 0.000000000000
Cd 8.598000000000 -9.928115228985 3.505000000000
Se 6.448500000000 -8.687100825362 2.641297900000
Se 8.598000000000 -9.928115228985 6.146297900000
Cd 6.448500000000 -8.687100825362 7.010000000000
Se 6.448500000000 -8.687100825362 9.651297900000
Cd 4.299000000000 -4.964057614492 -14.020000000000
Cd 6.448500000000 -6.205072018116 -10.515000000000
Se 4.299000000000 -4.964057614492 -11.378702100000
Se 6.448500000000 -6.205072018116 -7.873702100000
Cd 4.299000000000 -4.964057614492 -7.010000000000
Cd 6.448500000000 -6.205072018116 -3.505000000000
Se 4.299000000000 -4.964057614492 -4.368702100000
Se 6.448500000000 -6.205072018116 -0.863702100000
Cd 4.299000000000 -4.964057614492 0.000000000000
Cd 6.448500000000 -6.205072018116 3.505000000000
Se 4.299000000000 -4.964057614492 2.641297900000
Se 6.448500000000 -6.205072018116 6.146297900000
Cd 4.299000000000 -4.964057614492 7.010000000000
Cd 6.448500000000 -6.205072018116 10.515000000000
Se 4.299000000000 -4.964057614492 9.651297900000
Se 6.448500000000 -6.205072018116 13.156297900000
Cd 4.299000000000 -4.964057614492 14.020000000000
Se 4.299000000000 -2.482028807246 -14.883702100000
Cd 2.149500000000 -1.241014403623 -14.020000000000
Cd 4.299000000000 -2.482028807246 -10.515000000000
Se 2.149500000000 -1.241014403623 -11.378702100000
Se 4.299000000000 -2.482028807246 -7.873702100000
Cd 2.149500000000 -1.241014403623 -7.010000000000
Cd 4.299000000000 -2.482028807246 -3.505000000000
Se 2.149500000000 -1.241014403623 -4.368702100000
Se 4.299000000000 -2.482028807246 -0.863702100000
Cd 2.149500000000 -1.241014403623 0.000000000000
Cd 4.299000000000 -2.482028807246 3.505000000000
Se 2.149500000000 -1.241014403623 2.641297900000
Se 4.299000000000 -2.482028807246 6.146297900000
Cd 2.149500000000 -1.241014403623 7.010000000000
Cd 4.299000000000 -2.482028807246 10.515000000000
Se 2.149500000000 -1.241014403623 9.651297900000
Se 4.299000000000 -2.482028807246 13.156297900000
Cd 2.149500000000 -1.241014403623 14.020000000000
Se 2.149500000000 -1.241014403623 16.661297900000
Se 2.149500000000 1.241014403623 -14.883702100000
Cd 0.000000000000 2.482028807246 -14.020000000000
Cd 2.149500000000 1.241014403623 -10.515000000000
Se 0.000000000000 2.482028807246 -11.378702100000
Se 2.149500000000 1.241014403623 -7.873702100000
Cd 0.000000000000 2.482028807246 -7.010000000000
Cd 2.149500000000 1.241014403623 -3.505000000000
Se 0.000000000000 2.482028807246 -4.368702100000
Se 2.149500000000 1.241014403623 -0.863702100000
Cd 0.000000000000 2.482028807246 0.000000000000
Cd 2.149500000000 1.241014403623 3.505000000000
Se 0.000000000000 2.482028807246 2.641297900000
Se 2.149500000000 1.241014403623 6.146297900000
Cd 0.000000000000 2.482028807246 7.010000000000
Cd 2.149500000000 1.241014403623 10.515000000000
Se 0.000000000000 2.482028807246 9.651297900000
Se 2.149500000000 1.241014403623 13.156297900000
Cd 0.000000000000 2.482028807246 14.020000000000
Se 0.000000000000 2.482028807246 16.661297900000
Se 0.000000000000 4.964057614492 -14.883702100000
Cd -2.149500000000 6.205072018116 -14.020000000000
Cd 0.000000000000 4.964057614492 -10.515000000000
Se -2.149500000000 6.205072018116 -11.378702100000
Se 0.000000000000 4.964057614492 -7.873702100000
Cd -2.149500000000 6.205072018116 -7.010000000000
Cd 0.000000000000 4.964057614492 -3.505000000000
Se -2.149500000000 6.205072018116 -4.368702100000
Se 0.000000000000 4.964057614492 -0.863702100000
Cd -2.149500000000 6.205072018116 0.000000000000
Cd 0.000000000000 4.964057614492 3.505000000000
Se -2.149500000000 6.205072018116 2.641297900000
Se 0.000000000000 4.964057614492 6.146297900000
Cd -2.149500000000 6.205072018116 7.010000000000
Cd 0.000000000000 4.964057614492 10.515000000000
Se -2.149500000000 6.205072018116 9.651297900000
Se 0.000000000000 4.964057614492 13.156297900000
Cd -2.149500000000 6.205072018116 14.020000000000
Cd -2.149500000000 8.687100825362 -10.515000000000
Se -4.299000000000 9.928115228985 -11.378702100000
Se -2.149500000000 8.687100825362 -7.873702100000
Cd -4.299000000000 9.928115228985 -7.010000000000
Cd -2.149500000000 8.687100825362 -3.505000000000
Se -4.299000000000 9.928115228985 -4.368702100000
Se -2.149500000000 8.687100825362 -0.863702100000
Cd -4.299000000000 9.928115228985 0.000000000000
Cd -2.149500000000 8.687100825362 3.505000000000
Se -4.299000000000 9.928115228985 2.641297900000
Se -2.149500000000 8.687100825362 6.146297900000
Cd -4.299000000000 9.928115228985 7.010000000000
Cd -2.149500000000 8.687100825362 10.515000000000
Se -4.299000000000 9.928115228985 9.651297900000
Se -2.149500000000 8.687100825362 13.156297900000
Se -4.299000000000 12.410144036231 -7.873702100000
Cd -4.299000000000 12.410144036231 -3.505000000000
Se -4.299000000000 12.410144036231 -0.863702100000
Cd -4.299000000000 12.410144036231 3.505000000000
Se -4.299000000000 12.410144036231 6.146297900000
Se 10.747500000000 -8.687100825362 -4.368702100000
Cd 10.747500000000 -8.687100825362 0.000000000000
Se 10.747500000000 -8.687100825362 2.641297900000
Se 8.598000000000 -4.964057614492 -11.378702100000
Se 10.747500000000 -6.205072018116 -7.873702100000
Cd 8.598000000000 -4.964057614492 -7.010000000000
Cd 10.747500000000 -6.205072018116 -3.505000000000
Se 8.598000000000 -4.964057614492 -4.368702100000
Se 10.747500000000 -6.205072018116 -0.863702100000
Cd 8.598000000000 -4.964057614492 0.000000000000
Cd 10.747500000000 -6.205072018116 3.505000000000
Se 8.598000000000 -4.964057614492 2.641297900000
Se 10.747500000000 -6.205072018116 6.146297900000
Cd 8.598000000000 -4.964057614492 7.010000000000
Se 8.598000000000 -4.964057614492 9.651297900000
Cd 6.448500000000 -1.241014403623 -14.020000000000
Cd 8.598000000000 -2.482028807246 -10.515000000000
Se 6.448500000000 -1.241014403623 -11.378702100000
Se 8.598000000000 -2.482028807246 -7.873702100000
Cd 6.448500000000 -1.241014403623 -7.010000000000
Cd 8.598000000000 -2.482028807246 -3.505000000000
Se 6.448500000000 -1.241014403623 -4.368702100000
Se 8.598000000000 -2.482028807246 -0.863702100000
Cd 6.448500000000 -1.241014403623 0.000000000000
Cd 8.598000000000 -2.482028807246 3.505000000000
Se 6.448500000000 -1.241014403623 2.641297900000
Se 8.598000000000 -2.482028807246 6.146297900000
Cd 6.448500000000 -1.241014403623 7.010000000000
Cd 8.598000000000 -2.482028807246 10.515000000000
Se 6.448500000000 -1.241014403623 9.651297900000
Se 8.598000000000 -2.482028807246 13.156297900000
Cd 6.448500000000 -1.241014403623 14.020000000000
Se 6.448500000000 1.241014403623 -14.883702100000
Cd 4.299000000000 2.482028807246 -14.020000000000
Cd 6.448500000000 1.241014403623 -10.515000000000
Se 4.299000000000 2.482028807246 -11.378702100000
Se 6.448500000000 1.241014403623 -7.873702100000
Cd 4.299000000000 2.482028807246 -7.010000000000
Cd 6.448500000000 1.241014403623 -3.505000000000
Se 4.299000000000 2.482028807246 -4.368702100000
Se 6.448500000000 1.241014403623 -0.863702100000
Cd 4.299000000000 2.482028807246 0.000000000000
Cd 6.448500000000 1.241014403623 3.505000000000
Se 4.299000000000 2.482028807246 2.641297900000
Se 6.448500000000 1.241014403623 6.146297900000
Cd 4.299000000000 2.482028807246 7.010000000000
Cd 6.448500000000 1.241014403623 10.515000000000
Se 4.299000000000 2.482028807246 9.651297900000
Se 6.448500000000 1.241014403623 13.156297900000
Cd 4.299000000000 2.482028807246 14.020000000000
Se 4.299000000000 4.964057614492 -14.883702100000
Cd 2.149500000000 6.205072018116 -14.020000000000
Cd 4.299000000000 4.964057614492 -10.515000000000
Se 2.149500000000 6.205072018116 -11.378702100000
Se 4.299000000000 4.964057614492 -7.873702100000
Cd 2.149500000000 6.205072018116 -7.010000000000
Cd 4.299000000000 4.964057614492 -3.505000000000
Se 2.149500000000 6.205072018116 -4.368702100000
Se 4.299000000000 4.964057614492 -0.863702100000
Cd 2.149500000000 6.205072018116 0.000000000000
Cd 4.299000000000 4.964057614492 3.505000000000
Se 2.149500000000 6.205072018116 2.641297900000
Se 4.299000000000 4.964057614492 6.146297900000
Cd 2.149500000000 6.205072018116 7.010000000000
Cd 4.299000000000 4.964057614492 10.515000000000
Se 2.149500000000 6.205072018116 9.651297900000
Se 4.299000000000 4.964057614492 13.156297900000
Cd 2.149500000000 6.205072018116 14.020000000000
Cd 2.149500000000 8.687100825362 -10.515000000000
Se 0.000000000000 9.928115228985 -11.378702100000
Se 2.149500000000 8.687100825362 -7.873702100000
Cd 0.000000000000 9.928115228985 -7.010000000000
Cd 2.149500000000 8.687100825362 -3.505000000000
Se 0.000000000000 9.928115228985 -4.368702100000
Se 2.149500000000 8.687100825362 -0.863702100000
Cd 0.000000000000 9.928115228985 0.000000000000
Cd 2.149500000000 8.687100825362 3.505000000000
Se 0.000000000000 9.928115228985 2.641297900000
Se 2.149500000000 8.687100825362 6.146297900000
Cd 0.000000000000 9.928115228985 7.010000000000
Cd 2.149500000000 8.687100825362 10.515000000000
Se 0.000000000000 9.928115228985 9.651297900000
Se 2.149500000000 8.687100825362 13.156297900000
Se -0.000000000000 12.410144036231 -7.873702100000
Cd -0.000000000000 12.410144036231 -3.505000000000
Se -2.149500000000 13.651158439854 -4.368702100000
Se -0.000000000000 12.410144036231 -0.863702100000
Cd -2.149500000000 13.651158439854 0.000000000000
Cd -0.000000000000 12.410144036231 3.505000000000
Se -2.149500000000 13.651158439854 2.641297900000
Se -0.000000000000 12.410144036231 6.146297900000
Se 12.897000000000 -4.964057614492 -4.368702100000
Cd 12.897000000000 -4.964057614492 0.000000000000
Se 12.897000000000 -4.964057614492 2.641297900000
Se 10.747500000000 -1.241014403623 -11.378702100000
Se 12.897000000000 -2.482028807246 -7.873702100000
Cd 10.747500000000 -1.241014403623 -7.010000000000
Cd 12.897000000000 -2.482028807246 -3.505000000000
Se 10.747500000000 -1.241014403623 -4.368702100000
Se 12.897000000000 -2.482028807246 -0.863702100000
Cd 10.747500000000 -1.241014403623 0.000000000000
Cd 12.897000000000 -2.482028807246 3.505000000000
Se 10.747500000000 -1.241014403623 2.641297900000
Se 12.897000000000 -2.482028807246 6.146297900000
Cd 10.747500000000 -1.241014403623 7.010000000000
Se 10.747500000000 -1.241014403623 9.651297900000
Cd 8.598000000000 2.482028807246 -14.020000000000
Cd 10.747500000000 1.241014403623 -10.515000000000
Se 8.598000000000 2.482028807246 -11.378702100000
Se 10.747500000000 1.241014403623 -7.873702100000
Cd 8.598000000000 2.482028807246 -7.010000000000
Cd 10.747500000000 1.241014403623 -3.505000000000
Se 8.598000000000 2.482028807246 -4.368702100000
Se 10.747500000000 1.241014403623 -0.863702100000
Cd 8.598000000000 2.482028807246 0.000000000000
Cd 10.747500000000 1.241014403623 3.505000000000
Se 8.598000000000 2.482028807246 2.641297900000
Se 10.747500000000 1.241014403623 6.146297900000
Cd 8.598000000000 2.482028807246 7.010000000000
Cd 10.747500000000 1.241014403623 10.515000000000
Se 8.598000000000 2.482028807246 9.651297900000
Cd 8.598000000000 2.482028807246 14.020000000000
Cd 6.448500000000 6.205072018116 -14.020000000000
Cd 8.598000000000 4.964057614492 -10.515000000000
Se 6.448500000000 6.205072018116 -11.378702100000
Se 8.598000000000 4.964057614492 -7.873702100000
Cd 6.448500000000 6.205072018116 -7.010000000000
Cd 8.598000000000 4.964057614492 -3.505000000000
Se 6.448500000000 6.205072018116 -4.368702100000
Se 8.598000000000 4.964057614492 -0.863702100000
Cd 6.448500000000 6.205072018116 0.000000000000
Cd 8.598000000000 4.964057614492 3.505000000000
Se 6.448500000000 6.205072018116 2.641297900000
Se 8.598000000000 4.964057614492 6.146297900000
Cd 6.448500000000 6.205072018116 7.010000000000
Cd 8.598000000000 4.964057614492 10.515000000000
Se 6.448500000000 6.205072018116 9.651297900000
Cd 6.448500000000 6.205072018116 14.020000000000
Cd 6.448500000000 8.687100825362 -10.515000000000
Se 4.299000000000 9.928115228985 -11.378702100000
Se 6.448500000000 8.687100825362 -7.873702100000
Cd 4.299000000000 9.928115228985 -7.010000000000
Cd 6.448500000000 8.687100825362 -3.505000000000
Se 4.299000000000 9.928115228985 -4.368702100000
Se 6.448500000000 8.687100825362 -0.863702100000
Cd 4.299000000000 9.928115228985 0.000000000000
Cd 6.448500000000 8.687100825362 3.505000000000
Se 4.299000000000 9.928115228985 2.641297900000
Se 6.448500000000 8.687100825362 6.146297900000
Cd 4.299000000000 9.928115228985 7.010000000000
Cd 6.448500000000 8.687100825362 10.515000000000
Se 4.299000000000 9.928115228985 9.651297900000
Se 4.299000000000 12.410144036231 -7.873702100000
Cd 4.299000000000 12.410144036231 -3.505000000000
Se 2.149500000000 13.651158439854 -4.368702100000
Se 4.299000000000 12.410144036231 -0.863702100000
Cd 2.149500000000 13.651158439854 0.000000000000
Cd 4.299000000000 12.410144036231 3.505000000000
Se 2.149500000000 13.651158439854 2.641297900000
Se 4.299000000000 12.410144036231 6.146297900000
Cd 12.897000000000 2.482028807246 -7.010000000000
Se 12.897000000000 2.482028807246 -4.368702100000
Cd 12.897000000000 2.482028807246 0.000000000000
Se 12.897000000000 2.482028807246 2.641297900000
Cd 12.897000000000 2.482028807246 7.010000000000
Cd 10.747500000000 6.205072018116 -7.010000000000
Cd 12.897000000000 4.964057614492 -3.505000000000
Se 10.747500000000 6.205072018116 -4.368702100000
Se 12.897000000000 4.964057614492 -0.863702100000
Cd 10.747500000000 6.205072018116 0.000000000000
Cd 12.897000000000 4.964057614492 3.505000000000
Se 10.747500000000 6.205072018116 2.641297900000
Se 12.897000000000 4.964057614492 6.146297900000
Cd 10.747500000000 6.205072018116 7.010000000000
Se 10.747500000000 6.205072018116 9.651297900000
Cd 8.598000000000 9.928115228985 -7.010000000000
Cd 10.747500000000 8.687100825362 -3.505000000000
Se 8.598000000000 9.928115228985 -4.368702100000
Se 10.747500000000 8.687100825362 -0.863702100000
Cd 8.598000000000 9.928115228985 0.000000000000
Cd 10.747500000000 8.687100825362 3.505000000000
Se 8.598000000000 9.928115228985 2.641297900000
Se 10.747500000000 8.687100825362 6.146297900000
Cd 8.598000000000 9.928115228985 7.010000000000
